polyura_hard                            
  0.900000000000000     
    15.4235000000000007    0.0000000000000000    0.0000000000000000
     0.0000000000000000   15.4235000000000007    0.0000000000000000
     0.0000000000000000    0.0000000000000000   15.4235000000000007
   C    H    N    O 
   155   140    20    30
Direct
  0.0638222540566206  0.3051749327950067  0.4303896098970586
  0.5132965260451146  0.1169699998810698  1.0232907603343260
  0.5655280191890240  0.1940614046461978  0.2533832442648141
  0.7330785090597997  0.3459421986005849  0.2809005204694903
  0.7156900982328445  0.7450342095417872  0.0409166036165459
  0.6453371990515054  0.7147044157889035  0.2671052465395570
  0.4104801691735005  0.4753595560745258  0.5619667302666684
  0.2533552878625048  0.2798407538862216  0.5698659494671334
  0.1217366422476242  0.3789759330872430  0.8016633125609187
  0.5467810237197323  0.1996485252615299  0.7939278355472759
  0.5729219508157762  0.2949985980349591  0.4935382778289653
  0.3396860195150707 -0.0133369720467321  0.6212129919293777
  0.3089971856895558  0.4943594620479912  0.0008303414545967
  0.0208745914535260  0.9557520848318007  0.8519256999787047
  0.5603448814763342  0.8604976135593873  0.9406785292913978
  0.5049068757700104  0.5281548750380701  0.4311287500888240
  0.8592789351543828  0.2294504302502011  0.2911402592468369
  0.6687777122236213  0.1116732392462281  0.0833549039632719
  0.5163370211960565  0.0337517552835156  0.2987069749132948
  0.7206720610971833  0.5685604068825844  0.2210918902756521
  0.5030713184490120  0.7482346268077911  0.0549304105619561
  0.6551299498368458  0.0862099361217222  0.8329155198190736
  0.8480004927639146  0.6440420448384071  0.0164589847014261
  0.4097091176254161  0.8956862430570448  0.7495153494344096
  0.1102750204675186  0.5235489554566236  0.6974119091173939
  0.1149220161957691  0.3057905004833059  0.1505858690126434
  0.2710606909414137  0.0284973062415528  0.1652788130340652
  0.2457662416290629  0.7948483136966650  0.4449679589437533
  0.9724153229700629  0.7745182246976642  0.3779390263512357
  1.0490855780399593  0.8569369164329548  0.1471916400810006
  0.3483954916678644  0.2974964054525596  0.0313992697934510
  0.8351629894754158  0.3458580437725998  0.8325521327484320
  0.4805958810552409  0.6967883002257365  0.6169629886787518
  0.7672333985086723  0.6413112446192298  0.7043392498246104
  0.8419316698895896  0.9306042258430606  0.6451255910958259
  0.3769098240908436  0.3499552237987768  0.1948955255597061
  0.4632690729497426  0.4573797554222101  0.3520606811696554
  0.4728679590778751  0.3853611969716212  0.1873589239536507
  0.2479712689699102  0.0829638373034269  0.3337444635464472
  0.3302497248559763  0.3738962645281017  0.2775544048999747
  0.3652326062728853  0.4282121917085379  0.3524696288174731
  0.3038321465904486  0.1689783471571870  0.3238933137041853
  0.1360097716721896  0.4687087845595854  0.4071029484784784
  0.2112493205654691  0.0528954441655438  0.4206615008503087
  0.0863748306657683  0.4719235451520852  0.0916752737510642
  0.3079738689359615  0.2233999173368637  0.4093532577392053
  0.5154804385253822  0.4273246558220498  0.2718697297068490
  0.3098843467530413  0.0259134395622230  0.9629840225884692
  0.0584183354096333  0.4090395563255935  0.4038102714803899
  0.0459857826698193  0.5350669616253542  0.1590580833429892
  0.9805986342027281  0.1049009891777384  0.2992176778058550
  0.8833972956378513  0.1290034485500840  0.3031726932093265
  0.8002113454382572  0.4419885437355207  0.1311485918996807
  0.8050734828058778  0.3802131795565113  0.0510744130357836
  0.8384861754599467  0.0805179901299498  0.1146317104205173
  0.7215505279033295  0.5011564723542948  0.1411493155976895
  0.9688957630094883  0.4520700686920806  0.3855527955605852
  0.8155197317438536  0.0567696679448227  0.3380414475197922
  0.6413757863262711  0.4954120797329438  0.0757909801399398
  0.7447422932539414  0.0505007167769153  0.1139580440822050
  0.9691024476741034  0.5522143654746755  0.3633925156412091
  0.1366276233645113  0.5690357401573340  0.4012224688438774
  0.0094951759524074  1.0097017763995888  0.3194043033684106
  0.3036854337370162  0.8460629162350431  0.9727936017801824
  0.2643088173953410  0.5857128928658739  0.1446616251689772
  0.2899146542516337  0.9410960563258634  0.0133513630080888
  0.3653503893507267  0.7503658426816676  0.3236318115945508
  0.3712772292606665  0.8304083054440654  0.2651631999780001
  0.4057536508981476  0.6651267391301602  0.2929535842932959
  0.2206230004454070  0.6593759847821448  0.1898324235784635
  0.4573343661261640  0.7291004976038038  0.1474493876324263
  0.1691791099046697  0.7262729228830527  0.1391822065544978
  0.4517301286216916  0.6480046289269210  0.2040869921961802
  0.4139938040700555  0.8188280557642991  0.1773714946776713
  0.0499852506639727  0.6155848285245779  0.3809716333910576
 -0.0253621618792433  0.5978077196574333  0.1356617936106424
  0.8511588129620452  0.9700796090543642  0.3742875195618805
  0.6289881092761485  0.8316617992294875  0.4417638253612996
  0.4615745746124017  0.9521616837447597  0.4387894897506297
  0.9125874134492855  0.0137956741122838  0.1241566612699849
  0.6225762124682463  0.9071095025993098  0.3739784084346476
  0.9485830075055770  0.9490389441589488  0.3658915073283488
  0.8856425259070619  0.9167734753605968  0.1517773633423570
  0.7195053913656089 -0.0379298664841839  0.1568912163268315
  0.5380462823886014  0.9617235345994382  0.3724931357217429
  0.7925451286178782  0.8998329811173206  0.1839222740455055
  0.2062599976267253  0.1152206377620907  0.4988764701280262
  0.4670188234275950  0.8700288228315713  0.4962340033140564
  0.2570650570306912  0.2018259409561704  0.4968471527095795
  0.6566031646271675  0.4470060026796924  0.9926621775450554
  0.7394374673822564  0.3908833268997610  0.9777921067364893
  0.3430106307414562  0.3135819327626649  0.7196883830881453
  0.2693014996536388  0.2631402584480539  0.6732353344112800
  0.3554476241356067  0.3043008495718365  0.8165691367164049
  0.2898392501640704  0.2481357282847823  0.8714457626483625
  0.2247664686681884  0.1906429576693842  0.8242760847308005
  0.2089562199414451  0.2027874383968024  0.7278242460796449
  0.0305269034999251  0.2209854774862467  0.0172363959029289
  0.1005706389600815  0.1496237992456458  0.0171226920538149
  0.0567284131506290  0.4724201736779149 -0.0044444981967252
  0.3371710059722288  1.0134346880369933  0.8675860340995569
  0.9518134373692474  0.7820852501358009  0.6632254016219038
  0.9588897589068933  0.2071095535277910  0.9494836574303963
  0.9574949403384680  0.1238566597616821  0.8971670433522548
  0.6230121735087709  0.1989215641420860  0.5258354276164557
  0.6200506703923562  0.3711540326461376  0.5459820557487082
  0.9461953370499308  0.3623586708539471  0.6632961748354623
  0.6065825640251650  0.3810548999042546  0.6483658701515379
  0.9122902645528290  0.2717956189356634  0.6930776014507964
  0.9474747821600716  0.1914265072562800  0.6490778179338561
  0.5690270973549352  0.1182146350232079  0.5423738770987859
  0.6156813284515289  0.0332000965389065  0.5658477607052096
  0.6664430512337833  0.4394822009473017  0.6991060303296122
 -0.0122814360217202  0.3711105094136355  0.5781832012758200
  0.7159344349528919  0.0356032707502253  0.5668577526401340
 -0.0060529379988058  0.2026364210261644  0.5626543928764745
  0.6949542997611707  0.4278951957487154  0.5054345468958165
  0.0129650446304930  0.2937946435948474  0.5192691232580839
  0.7700953490354593  0.1139377942287346  0.5368743606260715
 -0.0171153166000952  0.5337271457166908  0.9703792377006839
  0.9399920123085114  0.5962589439056472  0.0415799353917773
  0.6826997025552491  0.9858770651496177  0.8361558943772922
  0.0241627435807191  0.0495868155236241  0.8963087981982847
  0.0933441922234856  0.0636418963946035  0.9674877053761382
  0.1625081039307556  0.7251530697374953  0.0413641778484567
  0.3099473317586119  0.5376399490472011  0.8291836216547506
  0.4581441030338202  0.5215771913760895  0.9163366564792368
  0.1136681439937591  0.9126789985448287  0.5949044995861783
  0.3596785269789236  0.5214485267359124  0.9136398236977302
  0.0686363695451155  0.9615385350994144  0.6675574252624399
  0.1740618411763029  0.8359958571932723  0.6127144487399776
  0.1590412101212206  0.8645173354115148  0.7765394565467786
  0.1978345601500834  0.8080215575482560  0.7024651838078746
  0.0863192569931829  0.9302306853192407  0.7666866955324113
  0.4558093721735406  0.5974680050856860  0.7655333437424248
  0.2209197810063283  0.6545263273246562  0.9958943906903452
  0.3434768431375358  0.9240273314766865  0.8272226105829468
  0.3590992679807855  0.5679934884362554  0.7482860627125257
  0.5096492828404441  0.5555789875818467  0.8399617288487929
  0.0630283388109468  0.6172206344817035  0.6973907546873737
  0.3314890740435361  0.8395574698415507  0.8800335942732070
  0.0482235288569959  0.6855955556594971  0.7703826864748694
  1.0305766486067793  0.6314741580175162  0.6068650029736622
  0.7635907131635561  0.4822297324452816  0.5587603134550141
  0.7464294720150060  0.4821553355555502  0.6557139250759453
  0.7540048889909532  0.7952789315885088  0.8109326685092081
  0.7576619521437573  0.9507938118308153  0.8859239968887137
  0.7927982396464349  0.8557815411716694  0.8798417942037843
  0.6484112213867690  0.9288149036321930  0.7601569684556738
  0.9889127061465806  0.7697726045536325  0.7532246946795695
  0.9685039609346268  0.7100123743171408  0.5951164397558615
  0.6789479366263824  0.8368377495501921  0.7543757463984891
  0.2684614829908210  0.5814128190066763  0.0452151988905161
  0.7227870961787035  0.1980682386404780  0.5114768007891336
  0.5516042302651959  0.8084028688208419  0.4979747454926111
  0.2511283691486915  0.3558527000573253  0.2802673211538247
  0.3194110713906142  0.4492843304751736  0.4127962389320875
  0.3472533775994457  0.1824622330978124  0.2606662976242654
  0.3095040336425219  0.0940244142153987  1.0000665909374813
  0.1732722878864555 -0.0134817990660748  0.4333831591840806
  0.2005651852568450  0.4268744990092518  0.4257260684088808
  0.0337507472631782  0.1552515671682728  0.2680758295100170
  0.1381278653358407  0.2795201569962802  0.4398900254385472
  0.5310649708756680  0.1926364308554503  1.0169179395813333
  0.0777032714710240  0.5362190008218319  0.2306970828976201
  0.4925758508182330  0.2203156535015759  0.2636886596869374
  0.5221386967142488  0.3586234392772096  0.1318097842054753
  0.6041072980326011  0.2065297407307324  0.1888281580614634
  0.4575201717881762  0.1039521925937755  1.0781576130753037
  0.1558101976569549  0.1506932839864828  0.0720500726280996
  0.4797284581280969  0.0906164144853565 -0.0428239921877477
  0.7075325298714101  0.7596325536991085  0.2842219313830313
  0.4553381311057476  0.4749573726855885  0.6254843737276063
  0.6084137839710330  0.2356432366011299  0.3053677930227254
  0.5892138125257076  0.4536989930136607  0.2668631629684515
  0.0266754147238047  0.2650821757632150  0.3729502310029645
  0.7835912150681027  0.3961440975700103  0.3118166241835795
  0.6666389479477072  0.3682952655362988  0.3138289371773115
  0.7249498211034584  0.3348332547900691  0.2048087909868861
  0.8623247102039743  0.4512060271915809  0.1768195075444185
  0.9021173915911548  0.4139546580349951  0.3863583545387113
  0.7388410864980526  0.0764171356333332  0.3400799438730356
  0.8642159678527577  0.3301782349954525  0.0395260441588061
  0.5883755564873212  0.3024978542944889  0.4153815187366165
  0.3582023934563681  0.2832502985015190  0.4103128035568142
  0.2927689787721811  0.5283830487788416  0.1907685793333329
  0.2006804756019401  0.6048989388027817  0.4247732914721288
  0.0881934518009952  0.9944663485875782  0.3109260295020026
  0.3002899617731856  0.7829682018487568  0.0163046210234196
  0.2201209249458049  0.6526079138968700  0.2682897731184397
  0.3911876638200130  0.6095727256854344  0.3450709947381176
  0.3599248468589626  0.9039530802121372  0.2902485862694323
  0.4826746353757148  0.5761249202229526  0.1882288651374523
  0.4225463546863227  0.8810302813645213  0.1318007760301986
 -0.0683949689183365  0.6413557067186542  0.1875786995796105
  0.5812918666599339  0.5459466527464116  0.0778934513277538
  0.6907906973071507  0.7840074353992426  0.4473890067705706
  0.9004510105906718  0.5876976743516789  0.3464769524403629
  0.9876577117800059  0.0350877588932110  0.1216689915089444
  0.6285881821393474  0.6820663592693064  0.3355607467920542
  0.6436690363464475 -0.0573517757465177  0.1641432642371316
  0.6952935371170527  0.8046846288686069  0.0860652988474918
  0.7994583895581410  0.9267493908252158  0.4158404190983057
  0.5894804784236697  0.7588957920569744  0.2308185931970552
  0.6789912718627483  0.9281182087567141  0.3239222216633983
  0.7702120939374505  0.8321757282768752  0.2164466834204556
  0.8603553753093891  0.1534548532338525  0.0960969240760320
  0.9805924676307020  0.8202704466740340  0.8116366024760747
  0.3941680727533090  0.9913972531465076  0.4227723394133221
  0.0827804084477231  0.6723088011067160  0.8405806891861678
  0.3988000130358734  0.3518374578051712  0.6798348363696993
  0.4132779116679227  0.3418489040787121  0.8524683158175079
  0.1748925960285711  0.1485517717123520  0.8666430562484978
  0.1539399024944235  0.1657162551607625  0.6834999376059839
  0.0819579698519929  0.4155438620517777  0.9479725379462540
  0.1849446657990234  0.3205443554634898  0.5665057150214912
  0.3699147278257978  0.0723641258828119  0.8288911320239772
  0.3042528008288714  0.3360630791059055  0.5501735323263799
  0.0616528230044920  0.3329572356506965  0.8243057580734797
  0.1790640914701304  0.3922189158526700  0.8528880868536380
  0.1434592983673367  0.3434424726855162  0.7330491887440400
  0.2531055814255682  0.4400292444473207  0.9881736627463681
  0.3692746331033407  0.0513889043367188  0.5887814381393732
  0.5989044300446297  0.9575497834806341  0.7068397196380432
  0.6704921476527747  0.6858615352018811  0.0644071407137713
  0.1688607934729803  0.0879885335180399  0.5619617290202293
  0.5722319540173638  0.2353733443112728  0.8597268942896649
  0.7584107153208742  0.2645848697979941  0.4881604111523514
  0.9001465999605146  0.2566806309726826  0.9441131226034746
  0.9006245606497292  0.1097202627609828  0.8455990405335535
  0.4899793486838003  0.1231985179988168  0.5389202018803128
  0.4094347316848906  0.4009475566959285  0.5312266099117079
  0.5738659828837225  0.2360727929001054  0.7302539231911265
  0.4691613629711793  0.2106274752317988  0.7955639336172977
  0.6063335685751042  0.4485630070340064  0.9334205599965231
  0.5512205194329404  0.3369768121493494  0.6781470920482533
  0.9115990720048812  0.4236865806722516  0.6946190095746074
  0.9302650666951571  0.1233412151261585  0.6833458100381760
  0.6586880734165667  0.4468124515247880  0.7766848077398153
 -0.0090471119483837  0.4417927548792503  0.5477427615663520
  0.9557432442597176  0.5328558677003068  0.8974317925998513
  0.5843016424263606  0.9632884275268997  0.5796050409414534
  0.8476433503286079  0.1027425038500557  0.5329386280568148
  0.4940713248173717  0.2887304225476955  0.5112642271882057
  0.3349280790806505  0.4890618605117762  0.5926434147301687
  0.0948225610478514  0.9363864400938330  0.5232913653780320
  0.2823038895440288  1.0026480843475534  0.6725820423148540
  0.3077977987636756 -0.0644049960416744  0.5708738554700640
  0.0191168963457373  1.0215318609171793  0.6527304578596855
  0.2349521381877834  0.5252615982715440  0.8215709689452100
  0.3419309402946595  0.7689188007488552  0.8475659372621495
  0.3244485003388618  0.5945751093565150  0.6837735343478777
  0.2290541549545487  0.6615271122457955  0.9167385611354520
  0.1730484968820883  0.8443067394629784  0.8512074717603338
  0.2522278121905597  0.7535477501252494  0.7178069663459015
  0.1479770418503589  1.0118982187668801  0.9785199895681296
  0.1124476367969990  0.7681981324101669  1.0003142275790240
  0.4953099654029662  0.5058231597661310 -0.0172243839232431
  0.4055334596655461  0.8593553201381655  0.5420510812997814
  0.8474837099134610  0.8377966403776029  0.9328995092400653
  0.8191541406164256  0.5287380115590279  0.5283704876435376
  0.9198322325035603  0.7100502112010103  0.5331880040812275
  0.3573292002968123  0.4614163232747450  0.0529634017146708
  1.0403846240977195  0.9060247853562343  0.9123275423637450
  0.6348151345262011  0.8373150409986083  0.9393837599261690
  0.0553575333898982  0.5835895681697556  0.5512549569521505
  0.0132790256713061  0.1356356383204613  0.5213499505053876
  0.5880367045681797  0.5661527717429702  0.8450797304248501
  0.7955304592143617 -0.0082887333082458  0.9387725996424082
  0.5210064738352017  0.8210192627375721  0.8854997372367855
  0.6566521180066538  0.7894336346914252  0.6959065497832295
  0.9510688828080319  0.9343139081173326  0.8236343736501882
  0.6977385973991360  0.4280434360800018  0.4270647799479016
  0.5563310667569106  0.9380026208265735  0.9305691644792004
  0.7101273862875414  0.7488987668166857  0.9634841778901693
  0.2646860305169403  0.2581324963304297  0.1467014955290890
  0.1899273739234776  0.4229603028454690  0.1877155985304542
  0.3711593589119466  0.7336256192471807  0.4774116525501005
  0.2274514322182541  0.9484457833442091  0.2852580090759952
  0.2282659579874970  0.8929031070345588  0.1435007546851680
  0.1156967965854029  0.7522287985451368  0.4005145080783742
  0.0631202458693240  0.8772844476708336  0.4101979276955218
  0.0003549576871091  0.3477171604027011  0.0773035520009146
  0.1209849832251152  0.7816440189788872  0.2650018259731646
  0.9323594944852235  0.7898382759610180  0.2103211299091982
  0.2231705457789922  0.2335573674944813 -0.0029437922819930
  0.8097701323525425  0.2052644480869336  0.7840011598466293
  0.7082322171289624  0.2899442739415320  0.8726898327480648
  0.8454893185673219  0.6782450277660000  0.8138078256510380
  0.2638449299397117  0.7304503955710131  0.5708376547810902
  0.8127304866828531  0.5200496829553204  0.7887983618314892
  0.8746627645471668  0.8221698201322742  0.5564124603756262
  0.7304136716684765  0.8945838366851895  0.5480654702152734
  0.5780475317451509  0.6142066733569653  0.6812306358364519
  0.6200316259726685  0.6916515436797017  0.5747081352254688
  0.3200847294258910  0.3064748739192691  0.1228270785227900
  0.1414111032297645  0.3984147215358114  0.1388540702208834
  0.2426747622161864  0.0146216706832190  0.2602969694258396
  0.9541126185830590  0.8439567715395074  0.1674698564147611
  0.2635274454392039  0.9481686408974994  0.1084297798160685
  0.3270672678804059  0.7536887905783184  0.4179276451801575
  0.0497669726133895  0.7161128348493238  0.3911287726465834
  0.9912734644703650  0.8678678409352238  0.4043274021319673
  0.1203778963116351  0.7976819537469444  0.1927716094964985
  0.0299416228554987  0.2846950252304011  0.1001075322508146
  0.2873227332342684  0.2572299953774466  0.9702650504756551
  0.8543724709764079  0.2659237976344567  0.7756432134304233
  0.7520128183497065  0.3474537300261356  0.8869051934474496
  0.2177510936447724  0.7803209038869249  0.5359947897359195
  0.5108907976717523  0.6442872672562538  0.6917381652172703
  0.8825443651471329  0.8425086830458997  0.6260223086172482
  0.7923555403104344  0.5496060511202757  0.7228088173760259
  0.5563111825485986  0.7259845730568291  0.5609540848576352
  0.7872430238768372  0.7045488758733039  0.7792818016729393
  0.7591118687871228  0.9485451623767823  0.5896431967070791
  0.2883556113153619  0.1096213612438758  0.1388659421506603
  0.1608913232149513  0.2372367769240911  0.1905840872471802
  0.9129726462483738  0.2993856582786165  0.2795713540575010
  0.4387037341228475  0.0370974542928398  0.2538602165087430
  0.6803396595378978  0.1993480814777260  0.0746220565610042
  0.7630012465802117  0.5660118629777727  0.2999080520842499
  0.5786432241376510  0.5715846312101934  0.4274162927609433
  0.1953543409995872  0.8526558846792169  0.3904679794510223
  0.8970730571243147  0.7478160580265553  0.3424035758744213
  0.5144357628048621  0.6792636373419925  0.0007470171472981
  0.4335978614769495  0.3249373026032440  1.0128234358674342
  0.8879232969923506  0.4174576400285062  0.8336377366976921
  0.7133869569943708  0.1476844647478911  0.8583754109867651
  1.0715076792484699  0.9074763008980701  0.0768472125535384
  0.4636209788795458  0.8248513851861984  0.7600292806746517
  0.3937813418976461  0.7199332292012200  0.5969402911363810
  0.1578141882894009  0.4883371790972526  0.6333688698140817
  0.7292474465507690  0.6692940937150831  0.6292195896532291
  0.8705550812535747  0.9925711636203834  0.7017980398697128
  0.8110487705225276  0.6203527801277526  0.9392920492659377
  0.4396880413635295  0.5496022095178252  0.4978960775826805
  0.8127743944742786  0.7152132432087215  0.0685766769888175
  0.5859556682079254  0.1011547663766540  0.2991252933645164
  0.5909071011285879  0.0620370782239118  0.0575539011639906
  0.7584518976257912  0.2463338424857114  0.3190279113338389
  0.6612260419280531  0.6418650692972990  0.1984157624600077
  0.5310803428622501  0.8402502270318707  0.0378781313928821
  0.5655160773487306  0.1036547602791276  0.7937795957884928
  0.4234501956611999  0.9471523656455558  0.6720451170274614
  0.0876773020514531  0.4798547603844513  0.7806533571113912
 
 -0.10608316E-01  0.97328191E-03 -0.11083326E-01
 -0.64481080E-02  0.12606701E-01  0.39592881E-02
  0.21740821E-02 -0.58716958E-02 -0.24398641E-02
 -0.21461402E-02  0.62280328E-02  0.94194351E-02
 -0.13920378E-03 -0.56377485E-02 -0.11543632E-01
 -0.38901166E-02  0.16299848E-02  0.15123504E-02
  0.56287795E-02 -0.11580450E-02  0.12128261E-02
  0.31724542E-03 -0.44317722E-02 -0.64908243E-02
  0.17379848E-02 -0.30245588E-02  0.20729749E-02
  0.54065542E-02  0.13968466E-01 -0.55443672E-02
 -0.10372807E-03  0.21424156E-02  0.33414246E-02
 -0.14914274E-02  0.24896792E-02  0.57372403E-02
  0.41458991E-02 -0.46533982E-02 -0.30746803E-02
 -0.57056957E-02 -0.30343717E-02 -0.10393030E-02
 -0.19528365E-02 -0.11379894E-01 -0.24899042E-02
 -0.12972901E-02  0.24038908E-03 -0.56186889E-02
  0.68456198E-02 -0.31989281E-02 -0.84820363E-02
 -0.54387364E-02 -0.10942477E-01  0.19954755E-02
  0.51680533E-02 -0.38125765E-02 -0.51815105E-02
 -0.13394203E-02 -0.45418867E-02  0.25435995E-02
  0.69196131E-03 -0.18374574E-02 -0.25511838E-02
 -0.60101016E-02 -0.51151029E-02 -0.93794873E-02
  0.20081601E-02 -0.31297262E-02  0.37830852E-03
 -0.63150825E-02  0.89047394E-02  0.65622519E-02
 -0.72903028E-02 -0.30045554E-02 -0.42029528E-02
 -0.57694054E-02 -0.76865967E-03  0.58262427E-02
 -0.12683980E-01  0.32262083E-02  0.57818217E-02
 -0.33928282E-03  0.12106955E-02  0.33997361E-02
 -0.97119892E-02 -0.44666770E-02 -0.43560715E-02
 -0.21409823E-02  0.54391404E-02  0.23523091E-03
  0.69453041E-02 -0.12525863E-02  0.65259998E-02
 -0.29778013E-02 -0.61342206E-03 -0.60771776E-02
  0.15620816E-02 -0.24863213E-02 -0.14983959E-02
  0.69341686E-03  0.51916415E-02 -0.14645819E-02
  0.65745620E-02  0.32758092E-03  0.58937268E-02
  0.54285060E-02 -0.34525396E-02 -0.63892212E-02
 -0.90815243E-02 -0.42720762E-02 -0.12423705E-01
  0.74077012E-02 -0.11360669E-02 -0.56604596E-02
  0.10993904E-01 -0.35288860E-02  0.11884736E-02
  0.78047625E-02 -0.30385303E-02  0.84910048E-03
 -0.45709706E-02  0.69915011E-02 -0.92757792E-02
  0.67681214E-02  0.19861933E-02  0.10311873E-01
  0.19053906E-02 -0.64743082E-03 -0.48517216E-02
  0.64622480E-02 -0.91796875E-02 -0.70944917E-02
  0.95800415E-02  0.23806078E-02 -0.89457109E-02
  0.37853768E-02  0.76321335E-02  0.25904803E-02
 -0.61261455E-02 -0.37451797E-02 -0.68275958E-02
  0.14921932E-02  0.88246810E-02  0.11255142E-01
  0.18789524E-02 -0.17713361E-02  0.72654405E-03
  0.98565046E-02  0.54355539E-02 -0.28444906E-02
 -0.48437137E-02  0.11092376E-01 -0.26717350E-03
 -0.55234548E-02 -0.51382341E-02 -0.26425803E-02
  0.70942201E-02  0.52463074E-02 -0.66695270E-02
  0.48420136E-02 -0.79344637E-02  0.58448646E-02
  0.48122213E-02 -0.40876140E-02 -0.55395462E-02
  0.51298095E-02  0.41643083E-02  0.83880859E-02
 -0.78457823E-02  0.17775041E-02  0.13409326E-01
 -0.81447470E-03 -0.22210208E-02  0.65900452E-02
  0.58988449E-02 -0.57427695E-03  0.69803679E-02
 -0.71424916E-02  0.55009298E-03 -0.62779271E-02
 -0.65728982E-02  0.60786317E-02  0.13052721E-01
 -0.33810459E-02  0.28593320E-02 -0.11367305E-01
 -0.15042249E-02 -0.23312683E-05  0.21902444E-02
 -0.24689339E-02 -0.69469243E-02  0.64734993E-02
 -0.36862472E-03 -0.69967107E-02 -0.21125492E-02
  0.34797166E-02  0.47844835E-02  0.75120040E-03
 -0.21471711E-02 -0.35030169E-02 -0.13564698E-02
  0.84325367E-02  0.50203640E-04  0.20064355E-02
 -0.97969572E-02 -0.43295558E-02  0.29804633E-02
  0.54263540E-02  0.42383700E-02  0.11225192E-03
  0.55767710E-02  0.24886423E-02  0.30893947E-02
 -0.51406639E-02  0.55741571E-02  0.10044292E-01
  0.55626140E-02 -0.12980354E-03 -0.39350165E-02
 -0.76118183E-02  0.50190481E-02  0.16648280E-02
  0.93082656E-02  0.16468062E-02 -0.33435541E-02
  0.24527403E-02 -0.25168830E-02  0.45110725E-02
  0.73163767E-02 -0.83687585E-02  0.13098013E-02
 -0.37762513E-03 -0.91602317E-03  0.20240695E-02
 -0.99121765E-02 -0.63494473E-02  0.26027052E-02
 -0.41976610E-03 -0.34826665E-02 -0.63540793E-02
 -0.33915589E-02  0.23864230E-02  0.45568477E-02
  0.13418961E-01 -0.62193936E-03 -0.44342785E-02
 -0.10507652E-01  0.15354995E-02 -0.39391600E-02
 -0.70133229E-03  0.10055676E-02 -0.40865932E-02
 -0.88746154E-04 -0.51079934E-02  0.13847222E-01
 -0.27487310E-02  0.56105651E-02  0.36568978E-02
 -0.27206299E-02  0.65926461E-02 -0.35325194E-02
 -0.23836793E-02 -0.54255163E-02 -0.55872159E-02
 -0.33474541E-02  0.58394312E-02 -0.26243143E-02
  0.37480860E-02  0.24638782E-04  0.29209748E-02
 -0.11483162E-02 -0.48452724E-02 -0.26668812E-02
 -0.10227486E-02  0.29214192E-03  0.48275818E-02
 -0.27394324E-02  0.17307673E-03 -0.22819113E-02
  0.29985982E-02 -0.37959353E-02  0.81001059E-02
  0.19977950E-02  0.48935436E-02 -0.33366873E-02
  0.10377659E-01 -0.67438687E-02 -0.10003243E-02
  0.52468026E-02  0.47225992E-02  0.89679335E-02
  0.38853436E-02  0.41670749E-02 -0.22288653E-02
 -0.12204743E-01 -0.35885806E-02 -0.20761780E-02
  0.45103957E-02 -0.38404728E-02 -0.91115144E-03
 -0.10047291E-01  0.74296430E-02  0.19284671E-02
 -0.11860236E-02  0.35597882E-02  0.25307373E-02
 -0.69910775E-02  0.56901749E-03  0.37481055E-02
 -0.35869823E-02 -0.15948518E-02  0.11952043E-02
  0.24660739E-02  0.29250828E-02 -0.42763233E-03
  0.36909507E-02 -0.98390129E-03  0.58989549E-02
 -0.16231906E-02  0.43667029E-02  0.69133358E-02
 -0.11373939E-02 -0.22716120E-02  0.12994753E-02
  0.24982158E-02 -0.13545162E-02 -0.16198105E-04
  0.11153679E-02  0.34526256E-02  0.12517466E-01
  0.12669493E-01 -0.54183477E-02 -0.10283696E-01
  0.11495254E-02  0.49997657E-02 -0.39514514E-02
 -0.48283293E-02  0.33068656E-03 -0.67409896E-02
 -0.32096329E-02  0.51846852E-02 -0.80989625E-04
  0.42413354E-02 -0.31077178E-02 -0.57038533E-02
  0.24156939E-02 -0.48005130E-02  0.47258304E-02
 -0.41001290E-02  0.92726654E-02  0.75549767E-02
 -0.74280708E-02 -0.47873995E-03  0.82772951E-02
  0.20565731E-02 -0.48370977E-02 -0.58772305E-02
  0.28459508E-02  0.55925268E-02 -0.19818642E-01
  0.66836522E-03 -0.26278276E-02 -0.90326839E-02
  0.28218939E-02 -0.13602678E-02  0.30299637E-02
 -0.77991022E-02  0.46997282E-02  0.54907769E-03
 -0.16181382E-02  0.40734596E-02 -0.25613208E-02
  0.81249437E-02  0.45977375E-02 -0.78912220E-02
 -0.44950263E-02  0.64712514E-02 -0.20332628E-02
  0.59632173E-02  0.15001548E-04 -0.57425884E-02
 -0.70285637E-02 -0.38915344E-02  0.21975138E-02
 -0.18223478E-02  0.17931351E-02 -0.71560219E-02
 -0.57808951E-02 -0.10551136E-01  0.51573885E-02
 -0.38603530E-02 -0.27181960E-02 -0.54702092E-02
 -0.32450633E-02 -0.57134260E-02  0.91193650E-02
 -0.15747867E-02  0.44370197E-02  0.25562517E-02
  0.23843257E-02 -0.16778334E-01 -0.60898883E-02
 -0.43900882E-02  0.85507883E-05  0.60774968E-02
  0.37911165E-02  0.25802601E-02  0.77036562E-02
 -0.13077718E-01  0.71384012E-02 -0.40461557E-02
 -0.23302922E-02 -0.38051820E-02 -0.57670071E-02
  0.10587835E-01  0.11843170E-01 -0.44266845E-02
  0.86427922E-02  0.25239802E-02  0.72275986E-02
 -0.85453668E-02 -0.36776211E-02  0.94130760E-02
  0.59010118E-02 -0.12611745E-03 -0.18927706E-02
  0.23245145E-02 -0.47848342E-02  0.12007721E-01
  0.51429194E-02 -0.79583236E-02  0.28649753E-02
 -0.93485375E-03  0.26310811E-02 -0.44824767E-02
 -0.10663735E-02  0.51484280E-02  0.49500616E-02
  0.10493611E-01  0.86437626E-04 -0.48878861E-02
 -0.58008861E-02 -0.76742020E-02  0.68948708E-02
  0.18012815E-02  0.48069146E-02  0.35030164E-02
  0.16346818E-01 -0.58513058E-02  0.46545211E-02
 -0.86499289E-03 -0.74536544E-02  0.42560241E-02
  0.31703768E-02 -0.33401146E-02  0.18967646E-02
  0.82698409E-02  0.49130431E-02  0.10654594E-01
  0.45306305E-02  0.47150644E-02 -0.45574445E-02
  0.32297165E-02 -0.32481031E-02 -0.35697116E-02
 -0.26902018E-02  0.31688495E-01 -0.36337446E-01
  0.22591846E-01 -0.35401456E-01  0.27456077E-01
  0.43315390E-02 -0.73922817E-03  0.91801706E-02
 -0.19351864E-02  0.18318189E-01 -0.11877548E-01
  0.15628188E-01  0.31023276E-02  0.25051566E-01
 -0.45348480E-02  0.24092806E-01  0.11341507E-01
 -0.18362319E-01  0.24518534E-01  0.21701738E-01
 -0.18189428E-01 -0.11499935E-01 -0.99406611E-02
 -0.12239134E-02  0.12852694E-01 -0.58594222E-02
  0.14079038E-01 -0.15350182E-01 -0.18001667E-01
  0.15387494E-01  0.13647650E-01 -0.82705124E-03
  0.18022433E-02 -0.23779986E-02  0.12560409E-02
  0.99853611E-02 -0.30918356E-01 -0.80174198E-02
  0.11219737E-01  0.98504487E-02  0.21280357E-01
 -0.12131197E-01 -0.14110486E-01  0.14071814E-02
 -0.71934964E-02  0.14458449E-02  0.13382004E-02
  0.17846318E-01 -0.20976007E-01  0.17488755E-02
  0.93832894E-02  0.33842741E-01  0.43184149E-01
 -0.73555907E-02  0.10011099E-01 -0.21080862E-01
  0.99890912E-02 -0.34023850E-01  0.16002673E-01
 -0.40341276E-01 -0.13089077E-01  0.19363864E-01