polyura_hard                            
  0.900000000000000     
    15.4235000000000007    0.0000000000000000    0.0000000000000000
     0.0000000000000000   15.4235000000000007    0.0000000000000000
     0.0000000000000000    0.0000000000000000   15.4235000000000007
   C    H    N    O 
   155   140    20    30
Direct
  0.0566143284243084  0.2969814521899909  0.4446781961149133
  0.4766233997313874  0.1482065813190789 -0.0432817673446770
  0.5513252546743825  0.1959791244124919  0.2646333764088233
  0.7601744370481752  0.3066545126340015  0.2801195588378941
  0.7694316045362255  0.7374941776934542  0.0549091388768591
  0.6669188733975622  0.7094656399912026  0.2836564460897928
  0.4367805554078148  0.4843747767959521  0.5528110045149437
  0.2731604743009715  0.2765168183193393  0.5707598990698898
  0.1356254940717923  0.3978822435374594  0.8136210784287883
  0.5363705457432524  0.2040467135853102  0.7477658730916323
  0.6011769915415939  0.3078960355862700  0.5002419972335344
  0.3312750373333791  0.0026063055571736  0.6449636028325957
  0.2890762711558234  0.5398242738140567  0.0120851288887254
  0.0065939802273986  0.9428540448117518  0.8037757791299295
  0.5384017155644538  0.9102015190138332 -0.0535007564989792
  0.5537443295081829  0.5047501973733365  0.4225086184568579
  0.8702299233944782  0.1793015984310934  0.2895593761210407
  0.6278517199096533  0.1731942679536398  0.0430206982049642
  0.5049424698046739  0.0418205470394522  0.3100784471348920
  0.7392084575724456  0.5664781692203491  0.2259542174230160
  0.5309273680523459  0.7818788294558215  0.0661093280749824
  0.6437751661013771  0.0929491610622684  0.8139497377454135
  0.9182153386070844  0.6590228651876191  1.0270375420708806
  0.3998903035315617  0.8771070238088065  0.7420537526657938
  0.1145859918271676  0.5289649797627649  0.7070043865163935
  0.0905125830026420  0.2531413537693010  0.1546469666266589
  0.2697701172068522  0.0465087371506195  0.1572171795457391
  0.2490653917139801  0.7690135735324581  0.4388249858100319
  0.9698578047317712  0.7467044528327466  0.3658420455530255
  0.9767285140590857  0.8801191475522691  0.1168421607388121
  0.3546144646442826  0.3373168581794598  1.0237275338824243
  0.8354800186311360  0.3280423205339205  0.8503430212568042
  0.4929701935663264  0.6790359519820230  0.6052956694885393
  0.7503279329953213  0.6491427353426293  0.7532890989867731
  0.8201414030809735  0.9028136488642929  0.6034517743444898
  0.3921311748286145  0.3993026403826142  0.1853995055781549
  0.4939278930415348  0.4591064104445158  0.3512849992533755
  0.4887835285693805  0.4332123914648882  0.1738846981303800
  0.2546998663777720  0.0960214273720737  0.3270909894884141
  0.3451609810150141  0.4127349532985005  0.2746455136700544
  0.3943553013408940  0.4414727562532916  0.3544237125000207
  0.3076467523181423  0.1812344499639382  0.3235058520413084
  0.1360804425017204  0.4448469494451515  0.4017384746182061
  0.2154404734392597  0.0665422527363572  0.4157843182930457
  0.0931059771201010  0.4337928463861526  0.1254568529585601
  0.3265500092192867  0.2317073819877563  0.4078279273717085
  0.5366120189401712  0.4561068729854484  0.2576460166316273
  0.2866097801448981  0.0108412599907957 -0.0500791417749940
  0.0483137340474847  0.3966962675156204  0.4096823169441088
  0.0736461353410674  0.5103698391142489  0.1879407951223394
 -0.0036596149677787  0.0530090925649935  0.3270479510666540
  0.9016731511702802  0.0879720883987021  0.3354450462275932
  0.8240761654866928  0.4462031328962709  0.1310340907857443
  0.8225598739943245  0.3755697634744924  0.0611740333364251
  0.7990009720119450  0.1290019816692451  0.0761492618971049
  0.7486530301546022  0.5123282897459551  0.1361424451071165
  0.9620741025643313  0.4496281168691144  0.4021276033444841
  0.8289435922749735  0.0245867187545074  0.3635598003103423
  0.6729675960264249  0.5107303593269578  0.0701864466622304
  0.7017355064364011  0.1104058824342582  0.0906589017954131
  0.9634147544137319  0.5495621878398995  0.3918192009506246
  0.1409134279403668  0.5430729336260672  0.3922055624644538
  0.0187741352165270  0.9625822594388319  0.3641342387801725
  0.3108413350860985  0.8454374701779742 -0.0051394699136518
  0.2427853503478144  0.6629575896339650  0.1385443772463001
  0.2850750840805413  0.9392482635563866  0.0201990857401739
  0.3734270214435041  0.7363304589407214  0.3213855114913178
  0.3668208321729443  0.8243771465655571  0.2704674971603362
  0.4346941075401040  0.6647701899876343  0.2828445608014031
  0.1890376900359396  0.7413635189589625  0.1733453363765990
  0.4864805981131425  0.7694545587165675  0.1612168741991528
  0.1204638880262944  0.7843814254372461  0.1160785883420695
  0.4813844202616638  0.6770137812756385  0.1964201068426853
  0.4261052562116024  0.8433261034297794  0.1934427494898665
  0.0528801297972670  0.5932812029271266  0.3859691426423701
  1.0253528116983617  0.5944281570915578  0.1581997617378091
  0.8515514958364396  0.9322135243038353  0.3963570328308585
  0.6278524683760948  0.8364917709085444  0.4346076221162598
  0.4477074046529182  0.9276377990597314  0.4360509404414373
  0.8676376556374352  1.0648062760481873  0.1065794267096984
  0.6118329722333414  0.9140061230255700  0.3725032155131149
  0.9457324554191525  0.9062183410230101  0.4036351135554149
  0.8384650266838389  0.9790625351848627  0.1495094796210390
  0.6727710726545795  1.0298721309382639  0.1432547453695696
  0.5222344732567591  0.9583567014264686  0.3750694029019263
  0.7416524239269598  0.9601743462073449  0.1642514301362817
  0.2290680729193667  0.1202889456497351  0.4989023077870792
  0.4617126216770064  0.8483403036323491  0.4959378748250962
  0.2798477519523528  0.2052060336237936  0.4920070809556099
  0.6752975310462803  0.4446665367541203  0.9959688002313080
  0.7502095085611908  0.3791801564470483  0.9911481284943100
  0.3396351731650333  0.3125396498461260  0.7266981602079884
  0.2731993938840794  0.2544992962933915  0.6766783725158808
  0.3519516273945524  0.3113306891228210  0.8246881645653569
  0.2842840433501916  0.2625528360950405  0.8792542141070713
  0.2139690623226616  0.2056912317637980  0.8329134150151521
  0.2058266692765222  0.2036804889113683  0.7339053661445498
  0.0358480006585023  0.1738897320643630  1.0059071906275290
  0.0753533488688594  0.0848528893838189  1.0204816125026801
  0.0710771039295946  0.4417933028406934  0.0269411137503599
  0.3183444282143071 -0.0104609635418461  0.8590735389660760
  0.9102696493443151  0.7464423069030314  0.6437161739026949
 -0.0099523790915087  0.1926742154571398  0.9196576926043791
 -0.0237033674889676  0.1166331643365534  0.8562484683121352
  0.6338120132469403  0.2100199446985623  0.5279969623096845
  0.6520919984165636  0.3745759073578424  0.5739114739478431
  0.9723315871276746  0.3569130462598039  0.6991191957425252
  0.6047975059498072  0.4006976691493669  0.6585394249876332
  0.9239997738134316  0.2704863643135819  0.7141754658509641
  0.9462169508421590  0.1866978287828504  0.6601691411792225
  0.5700449860395901  0.1298997929596842  0.5254496099232367
  0.6011677660488193  0.0407669508922586  0.5570119002776071
  0.6550194789352445  0.4549404142429119  0.7257752577321269
  1.0169219647074619  0.3626484228017127  0.6111845448815190
  0.6997809832345276  0.0276692288372051  0.5772960219676483
  1.0018119689267466  0.1939488558154707  0.5776534064297388
  0.7434086915373666  0.4182597265480485  0.5549244977451673
  1.0220795560714533  0.2866557348567220  0.5463009432155959
  0.7618045696028291  0.1069209156429378  0.5787625399316577
  0.0246436151170318  0.5247354232916269  0.9964398727734003
  0.9964254308393712  0.5976283242878070  0.0617250319899214
  0.6730346075588526  0.9934205866891574  0.8146353713005859
  0.0284053214835637  0.0316989520027265  0.8616327566207738
  0.0824230523989620  0.0199489945374361  0.9455827362695156
  0.1155805609418655  0.7556240454932501  0.0193804017814462
  0.3161014831538123  0.5538365592559421  0.8328915388343783
  0.4528281967831952  0.5750990705025294  0.9291292212781493
  0.1325577904359462  0.8848603534611899  0.5751106563357279
  0.3546654791805294  0.5545542500662631  0.9241036491804150
  0.0840277616782064  0.9397502631635909  0.6429699788038028
  0.1895660994442909  0.8062748849056797  0.6024639783442156
  0.1495881069644513  0.8355031986840517  0.7681696727530333
  0.2072170658071525  0.7891001602811085  0.7004512057457566
  0.0882128164159927  0.9094098599820198  0.7387623339117579
  0.4698756869419062  0.5915495425427437  0.7575653206874319
  0.1681512858897869  0.6758843626216884  0.9882643257473772
  0.3471940427327590  0.8957479234105117  0.8326955480564253
  0.3724876838094314  0.5686538974358260  0.7504940850867752
  0.5091187662739725  0.5981038397203560  0.8493765998934584
  1.0325373851210362  0.5941429344443742  0.6906495107004906
  0.3454326826253201  0.8217294298608494  0.9036081362511167
  0.0129656753265224  0.6676901510235118  0.7572385050902271
  0.9891775225641918  0.5952316064042631  0.6004072878342842
  0.7981993077298810  0.4651327988194209  0.6259486034536292
  0.7503573573465877  0.4810067879990720  0.7123449131436100
  0.7347518984971821  0.8107999895717073  0.8158450038488497
  0.7559868305283171  0.9754045194380930  0.8653912694849041
  0.7824655774256692  0.8797714886689680  0.8713938591098328
  0.6178762590842076  0.9246143698839157  0.7640527593836841
  0.9593193316026415  0.7461203401273167  0.7307966993888199
  0.9220051666341007  0.6664079255213100  0.5801213381196731
  0.6526762405090800  0.8329098468742443  0.7612284728866375
  0.2321330607742763  0.6237088951041634  0.0471917293326278
  0.7282804486238210  0.1987603505388636  0.5634910143038359
  0.5532701342871307  0.8008565531820374  0.4954632514551528
  0.2670474143432709  0.4099354517610532  0.2845356630448630
  0.3530105082809020  0.4536075295018384  0.4192773779009988
  0.3348803364093231  0.2070174982541878  0.2549351637728858
  0.2720183110469356  0.0847876052060441 -0.0326026439299814
  0.1667879095361144  0.0062360227982494  0.4187930560005163
  0.2003699396297071  0.4003649203471612  0.4032643923337128
  0.0488633607028353  0.0979173168472429  0.2899652016725141
  0.1328352085103694  0.2764715933197955  0.4413450810751884
  0.4684874976259732  0.1061863856592429  0.8910390223021274
  0.0907006568691638  0.5004382224076649  0.2622457252615489
  0.4744709057869864  0.2066183265265025  0.2506070692501057
  0.5221168433631993  0.4302705520168196  0.1027353493689901
  0.5896743731088777  0.1832366507393971  0.1976350510887802
  0.4859072128067251  0.2253464892565276 -0.0574265259879482
  0.0972668293974058  0.0685388428817059  0.0935301127299301
  0.4138971201376836  0.1383291859044002  0.0032053562927675
  0.7314827812384148  0.7019656959284032  0.3278304034061074
  0.4536549016984449  0.4978742230526249  0.6275875678172308
  0.5842915497372471  0.2592128052725175  0.2976368907658337
  0.6074294606284173  0.4848563457981357  0.2460418820533828
  1.0180907763379350  0.2431511230102827  0.4019446677334849
  0.7299586341683921  0.2982486468960434  0.2079811681973221
  0.8268515946931924  0.3476228279485684  0.2746619322557208
  0.7095595532331594  0.3359696161773835  0.3321421881653453
  0.8787794213523160  0.4481205122841812  0.1871346041747363
  0.8914298415211133  0.4156340372873476  0.4026455539873262
  0.7554366357745749  0.0510883034238438  0.3667311465275435
  0.8758717157779521  0.3187945201435693  0.0601556340782029
  0.6260552337116047  0.3228489112936909  0.4265089164704604
  0.3737188436859173  0.2939523393933241  0.4051526945608047
  0.2997037792470673  0.6358768585486655  0.1846436709402102
  0.2079596279404098  0.5813447499762308  0.3795278508437736
  0.0893165758074843  0.9294011358820095  0.3557850673274238
  0.3098667933693117  0.7935689064016321  0.0535059211197906
  0.1974388750778405  0.7581547577925587  0.2491423352066989
  0.4330297153072169  0.5937739302274941  0.3145717394341176
  0.3147609599052145  0.8779668504210826  0.2925663014093260
  0.5068705999263149  0.6188105362496074  0.1512512775990073
  0.4302087325813810  0.9087759527551655  0.1510662229235457
  1.0041513086841360  0.6497073288867143  0.2097642479901657
  0.6143983395583569  0.5623444601084063  0.0751974299516783
  0.6986681172063485  0.8021591974538717  0.4335605529182541
  0.8955733989598009  0.5879896207660016  0.3843526071114522
  0.9438956314491805  1.0789943960360557  0.1035352242092705
  0.6030726952209490  0.7087680236845191  0.3286401868798317
  0.5967869357917260  1.0165984891933466  0.1560811355855597
  0.7826961552265276  0.8143007055898868  0.0661715312723686
  0.7970683640457481  0.8874188965249956  0.4289519081060333
  0.6695343381545817  0.7765672647085128  0.2417975752294668
  0.6676480122452502  0.9443810514388614  0.3269132268058483
  0.7220150932737400  0.8905864516029498  0.1938270178615517
  0.8207672166320347  0.1881372775750213  1.0298588007896057
  0.9482983075205901  0.7986570386704412  0.7866007231009943
  0.3786704973200632  0.9655485210285226  0.4345028767500618
  0.0464537193776302  0.6622836049970091  0.8276133054826863
  0.3880494324886467  0.3575696036912259  0.6843302231896454
  0.4103009712733073  0.3527340366263227  0.8550751465483913
  0.1655573299663832  0.1607384806444727  0.8751495983400843
  0.1496835216170867  0.1594930519533154  0.7017431234193772
  0.0813505613953126  0.3832292039395366  0.9770150722249435
  0.2082315480563124  0.3225652305150484  0.5591868702009724
  0.3240807216109515  0.0500337230401999  0.8104780152747666
  0.3326960745920505  0.3270615446707518  0.5604095684352234
  0.1439629656750368  0.3615028398374994  0.7447158171169952
  0.0705490007148589  0.3706316317981370  0.8481710864007165
  0.2005741699057350  0.3930218661270662  0.8566882372973857
  0.2410282597755064  0.4778585078103158 -0.0014495189363568
  0.3006150119967578  0.0448214826507829  0.7029504649128023
  0.5546416856835669  0.9446254843519128  0.7226931887478161
  0.7100031264582763  0.7076874709024218  1.0963933077692729
  0.1915739367508068  0.1019393101458258  0.5653596609032332
  0.6010589877182663  0.2429839289337228  0.7251653303397348
  0.7753619984323322  0.2608409070689973  0.5706009323712063
  0.9625739402906389  0.2645237073920887  0.9063133535710026
  0.9204488628031080  0.1206380815073318  0.8032799621272834
  0.4959654701181527  0.1427122620214331  0.5014904790785121
  0.4354460173391017  0.4086843549346169  0.5341508641798841
  0.4852962357982394  0.2001609300951745  0.6882917051417762
  0.5052761116583651  0.2418437883529532  0.8091977840154102
  0.6188539054571272  0.4435494553453633  0.9418494499010579
  0.5298810162167451  0.3802812143733186  0.6700245043764730
  0.9653385673759505  0.4182374877613723  0.7460835875838152
  0.9133370934384800  0.1179255682866374  0.6768439758026810
  0.6217499120323272  0.4832773712449958  0.7905790765416024
  0.0396583276973992  0.4327690061743349  0.5874845012727475
 -0.0028380156993747  0.5304233645498044  0.9233196727954708
  0.5498177923598898 -0.0185569030177353  0.5625476905798538
  0.8373507360935106  0.0931551185152975  0.5852639145695098
  0.5221220504464722  0.3127177430932407  0.4943223273889197
  0.3687709904719916  0.5212268755035809  0.5377079642631215
  0.1239948726323166  0.9014971328158610  0.4993749583424774
  0.2746195405046991  0.9569463524393073  0.6145975929811694
  0.3561597268288990  0.0513831490503104  0.5892393062341903
  0.0395014147404545 -0.0009527532837690  0.6184732413792826
  0.2412887620502003  0.5403908522325291  0.8186945816037796
  0.3751724116068446  0.7497090703185720  0.8941797760293387
  0.3400298945728381  0.5581122166049298  0.6807561599702893
  0.1659908333774457  0.6575045819648616  0.9119943584682886
  0.1564364524360535  0.8137175943300324  0.8431408457220132
  0.2611204357895163  0.7364894924509606  0.7228620929269943
  0.1166454823031825  0.9523519321043517  0.9638317957823727
  0.0712617164014211  0.7970036100864268  0.9703559645369236
  0.4834147158954485  0.5792851542640549  1.0007578994520667
  0.4063527931317454  0.8275517036991140  0.5462427307681421
  0.8433637520394180  0.8581475059571404  0.9154732377969569
  0.8685309986576433  0.4972940136911817  0.6155628851461941
  0.8773116515730744  0.6615102811224545  0.5159835059229492
  0.3387413222857044  0.5157270175934365  0.0681332974998439
 -0.0065310538253694  0.8899710942004619  0.8612439029160888
  0.4714569149060890  0.9495070526535219  0.9348993672059611
  1.0056991820144430  0.5430321229879528  0.5450540456775320
  1.0124943895589167  0.1322305296014821  0.5297170760665082
  0.5842012315412439  0.6149625307550391  0.8652546128041955
  0.7898614132000814  1.0326446397949758  0.9066094579800827
  0.5992151102307801  0.9583449605103926  0.9437844372544955
  0.6127495662792537  0.7760276226295599  0.7263544479791788
  0.9390703118122816  0.9543971475550861  0.7641254899868075
  0.7703637098963749  0.4069450258840224  0.4818998097790443
  0.5468979237818958  0.8523271923914807 -0.1061383527364899
  0.7547783953335878  0.7217782003655797 -0.0201268187218953
  0.2700881741070456  0.3223663254102913  0.1463694494548272
  0.1431295201635624  0.3550800128179753  0.2399421569113351
  0.3627356608870348  0.6822757155613207  0.4606276924270320
  0.2149293507185809  0.9735180209463551  0.2693378833698301
  0.2591158722477255  0.9001939775528676  0.1590329537104045
  0.1071554576992721  0.7223462234094364  0.4121822213957958
  0.0175244177343982  0.8072813042301327  0.4935935035572380
  0.0047443345109164  0.3071159569558162  1.0506180872229673
  0.0765006065827475  0.8821184377429615  0.2208813591657112
  0.8863231349958842  0.8633968338592144  0.2299136279597096
  0.2442358205991474  0.2342613357647293  1.0222033923948555
  0.7964821956367277  0.2112162224146842  0.7708122514022606
  0.6902941748759193  0.3055812440300134  0.8780251553283055
  0.8198748715449780  0.7045325834251084  0.8730374242033525
  0.2571471215572463  0.6848981838304791  0.5603062136852646
  0.8030323040660693  0.5439238766752508  0.8440034168096620
  0.7789315184029775  0.7632788690760162  0.5894173555614493
  0.6770124157785049  0.8846048150242595  0.6142392758950569
  0.5955163931841461  0.6196102206479394  0.6835784721858240
  0.6346309839869735  0.6926456136746370  0.5645870098233078
  0.3343763069820889  0.3473819064877858  0.1199042971441684
  0.1277994963236091  0.3467766017313800  0.1685182700335419
  0.2332811499042012  0.0408617070697599  0.2471036413517356
  0.9079215944507432  0.9154274862526119  0.1824458753143008
  0.2597068134408910  0.9571882981718204  0.1131345467427942
  0.3261858990066321  0.7198406597243800  0.4075234915399378
  0.0531850525363799  0.6909469994113676  0.3743053398760266
 -0.0308913268597896  0.8140333132129193  0.4390260495504008
  0.0649382287406261  0.8623624338809979  0.1514294195447047
  0.0323225604676484  0.2440929836106069  0.0758367011696369
  0.2840220472599457  0.2778763378706289  0.9788582974592721
  0.8435105120232282  0.2675805743564369  0.7762154134499838
  0.7545162998179589  0.3227924120207424  0.9087023795495422
  0.2250410300348269  0.7433217467520745  0.5311304472361946
  0.5226342240896862  0.6192685885860999  0.6751671942379034
  0.8322909635070085  0.8062878218454265  0.6145341274144303
  0.7798094985359663  0.5591820231907652  0.7761168312494997
  0.5680189220814550  0.7224812643608459  0.5574729930254342
  0.7722373661842667  0.7195440110184539  0.8170214871139609
  0.7279161573779940  0.9317079550961187  0.5909480626479898
  0.3011293572925010  0.1227513206990122  0.1224099758066282
  0.1160012439482800  0.1883056819835339  0.2079966393116728
  0.9199583656386933  0.2213801066186206  0.2316448184341722
  0.4442635045051502  0.0414982412071126  0.2468194361563864
  0.6237813378766108  0.2604287695291080  1.0500173387313008
  0.7886465273127503  0.5621087644371485  0.2981777259865067
  0.6375915269940114  0.5235182749575831  0.4113560292881283
  0.2086624232345301  0.8304427806598440  0.3873731387565001
  0.9154932158464113  0.7483295780292329  0.2956841284967140
  0.5477695719828617  0.7131235692930377  0.0152804037880184
  0.4278025737493806  0.3758879686089698  0.9890154153059588
  0.8995513045885692  0.3881840808772656  0.8686465277460959
  0.6929300428443500  0.1641364048438824  0.8330001764644306
 -0.0462194495003898  0.8676834066767773  0.0344047180161217
  0.4491253431537108  0.8053998247848608  0.7346305138616903
  0.4069535024072549  0.6863737436641906  0.5797546019793693
  0.1722299700480940  0.5104501055436186  0.6425071371644487
  0.7133358036099793  0.6622867970295571  0.6716422926763070
  0.8848881317284577 -0.0399807631344717  0.5871115749961759
  0.9112048324085099  0.6742840885974843  0.9401519696901116
  0.5135799995800514  0.5336915194347187  0.5067357404066430
  0.8509255527181355  0.6816678440616731  0.0888088313174402
  0.5662108293499369  0.1155079278166130  0.3247196414162962
  0.5611613743492713  0.1125813639895454  0.0047268708906358
  0.7835889656965668  0.2122793972798158  0.3245818762687998
  0.6642661985316635  0.6269640038698857  0.2239088375025069
  0.5409606047634455  0.8741777054609619  0.0428064802871680
  0.5604803262066047  0.1082442155124353  0.7696918959250584
  0.4102161728827642 -0.0565825803786981  0.6711620137312356
  0.1181807913626213  0.5006217141767224  0.7999256339614758
 
 -0.80178717E-02 -0.30029301E-02  0.31603321E-02
  0.21781294E-02 -0.27854013E-02  0.13909841E-02
 -0.94619885E-03 -0.93078607E-02  0.80028605E-02
 -0.95305670E-02  0.12900975E-02  0.22661753E-02
  0.63542294E-02  0.56497818E-02 -0.31813327E-02
 -0.15737511E-02 -0.26256148E-02 -0.55514179E-03
 -0.30815733E-02 -0.78035916E-02 -0.76208646E-02
 -0.40093618E-02 -0.17453138E-02  0.84612602E-02
 -0.28146331E-02  0.55483196E-02 -0.14383527E-01
  0.29881261E-02  0.10053543E-01 -0.12024369E-02
 -0.10337753E-01 -0.25608536E-02 -0.12064000E-02
  0.43340577E-02 -0.13229876E-01 -0.49701476E-02
 -0.80796853E-02 -0.10558382E-03 -0.73377791E-02
  0.33773667E-02  0.66452788E-02 -0.63907612E-02
 -0.11697683E-01 -0.76085527E-03  0.41107088E-02
  0.60188318E-04 -0.84154957E-02  0.21585427E-02
 -0.40957052E-02  0.22652659E-02  0.32784948E-02
  0.44219875E-02 -0.30839034E-03 -0.34785400E-02
 -0.61534726E-02  0.42696961E-03  0.77037207E-02
  0.85143306E-03 -0.13329532E-03  0.59888863E-02
 -0.20252156E-02 -0.11984260E-02  0.19864868E-02
 -0.50994680E-02  0.21451954E-03  0.37754854E-02
 -0.16194086E-02 -0.10226697E-02 -0.17457618E-02
 -0.79082190E-02 -0.30008439E-02 -0.43351116E-02
  0.39648665E-03  0.29818281E-02 -0.67911831E-02
 -0.46506573E-03 -0.36297513E-02 -0.53629465E-02
  0.69665974E-02  0.46720393E-02  0.17898996E-02
  0.63135019E-02 -0.11060613E-01 -0.30047306E-02
 -0.75725819E-03  0.19675112E-02 -0.20248289E-02
 -0.15760635E-02  0.79174537E-02 -0.47020536E-02
 -0.61380659E-02 -0.28744492E-02  0.24303646E-02
 -0.22344023E-02  0.19925201E-02 -0.47661270E-02
  0.47427228E-02  0.73718695E-02 -0.50222897E-02
  0.80190419E-02 -0.19901650E-02 -0.28295703E-02
 -0.18049658E-02  0.37201812E-02  0.25827372E-03
  0.42451368E-02 -0.14972684E-01 -0.10189020E-03
 -0.97587555E-03 -0.24370232E-02  0.60868262E-03
  0.50064891E-02 -0.68702351E-02 -0.55628953E-03
 -0.91257156E-03 -0.66941473E-02  0.26008554E-02
 -0.34739030E-02 -0.19912534E-02  0.45584906E-03
 -0.10401597E-02 -0.80157809E-02  0.18167219E-02
 -0.64512747E-02 -0.81730076E-02  0.11611539E-01
 -0.23600802E-02 -0.47788479E-02 -0.31943873E-02
  0.50819239E-02 -0.10790591E-01  0.24248216E-02
 -0.16525161E-02 -0.20927586E-02  0.17292639E-03
  0.42065152E-02 -0.63728974E-02  0.11559009E-01
  0.19211118E-02  0.49504297E-02  0.14893814E-02
  0.15230359E-01  0.63360958E-02  0.59415955E-02
 -0.20688098E-02 -0.13536047E-02  0.41701335E-02
 -0.29067399E-03 -0.67443603E-02  0.68877398E-02
  0.53462566E-02 -0.66556458E-03  0.10670402E-02
 -0.17467288E-02 -0.14999753E-02 -0.69383615E-02
 -0.35586380E-02 -0.30657683E-02  0.51997263E-02
  0.67592489E-02  0.36745136E-02 -0.52781872E-02
  0.19238677E-02  0.10605177E-02 -0.52394188E-02
 -0.47848368E-02 -0.52840702E-02  0.64726160E-02
 -0.48835098E-02 -0.31012998E-02  0.24879329E-02
  0.50403484E-02  0.77644933E-02  0.21928685E-02
  0.62694335E-02  0.11177722E-01 -0.20369876E-02
  0.68448429E-03 -0.24456524E-02 -0.52437249E-03
 -0.97629331E-03 -0.17466927E-02 -0.73627386E-02
  0.36963457E-04  0.10946698E-02  0.80629977E-02
 -0.11673721E-01  0.55050266E-02  0.14700332E-01
  0.48946852E-02 -0.15548704E-02 -0.17085245E-02
 -0.10596658E-01  0.21306827E-02 -0.29959017E-02
  0.60279836E-02 -0.32507912E-02  0.33098288E-02
  0.19742612E-02 -0.17693167E-02  0.13808475E-02
  0.75631623E-02  0.57830616E-02 -0.12299446E-02
 -0.26893142E-02  0.89422148E-03  0.39599742E-02
 -0.84938599E-02  0.49279812E-02 -0.49869831E-02
 -0.43402205E-02 -0.42351666E-02 -0.55869922E-02
 -0.12248692E-02  0.37310161E-02 -0.61692298E-02
 -0.56373049E-02 -0.46262145E-02 -0.57664547E-02
  0.32443231E-02  0.67860384E-02  0.28895937E-02
  0.10334531E-02 -0.34909916E-02 -0.42100823E-02
  0.31934361E-02 -0.11873459E-02  0.11759175E-01
 -0.96305732E-02  0.38728131E-02  0.74922554E-02
  0.25612903E-02  0.10332067E-01  0.33559045E-02
  0.31661972E-02 -0.54935352E-02 -0.12844670E-03
  0.47383329E-02  0.34874950E-02 -0.17423041E-02
  0.18829315E-02  0.10724130E-01  0.44114444E-02
 -0.14551933E-01  0.16205048E-02  0.24539189E-02
  0.47957149E-02  0.71900791E-02 -0.49417592E-02
  0.23608939E-02 -0.38455101E-02  0.85156478E-02
 -0.17879152E-03  0.65766198E-02  0.83796714E-02
  0.45835313E-02 -0.49644734E-02 -0.10729272E-02
  0.27175079E-02 -0.39881768E-02  0.47876543E-03
 -0.84650085E-04 -0.70186317E-02 -0.11587459E-01
  0.45126782E-02 -0.91330191E-02  0.99747629E-02
  0.64893980E-02  0.54512998E-02  0.75801904E-03
  0.75282245E-03  0.32275233E-02  0.15103557E-02
  0.54168430E-02 -0.23926753E-02  0.16631090E-02
 -0.30165228E-02 -0.30825983E-02  0.26361764E-02
  0.19022734E-02  0.38899492E-02  0.32289438E-02
  0.16085739E-02  0.23052026E-02  0.20506475E-02
 -0.99852963E-03  0.16150650E-02  0.44808833E-02
 -0.45084633E-02 -0.56237983E-03  0.14076387E-02
  0.40750228E-02 -0.97576390E-03 -0.92269216E-03
 -0.32664251E-02 -0.25480744E-02  0.37598740E-03
 -0.10469699E-02  0.11300405E-01  0.17928036E-02
  0.13823657E-02  0.75772196E-02  0.10694507E-02
  0.37357424E-02  0.43009700E-02 -0.58900663E-02
  0.92524439E-04 -0.12944511E-02 -0.42443918E-02
 -0.29387298E-02  0.94151810E-03 -0.11287165E-02
 -0.28350402E-02  0.15089332E-02 -0.48508114E-02
 -0.47935740E-02 -0.47328145E-02 -0.37149164E-03
 -0.44526584E-02  0.92335082E-02 -0.29874506E-02
 -0.72295282E-03  0.13558427E-02 -0.24124334E-02
  0.12751153E-02  0.28082320E-02  0.28139583E-02
 -0.13839709E-02  0.21428189E-02  0.23020469E-02
 -0.17383068E-02 -0.37049992E-02 -0.26235879E-02
  0.39604638E-02  0.39756521E-02 -0.43854338E-02
 -0.19393567E-02  0.79650072E-04 -0.36151798E-02
 -0.32157678E-02  0.42748096E-02 -0.49109956E-02
  0.25636225E-03  0.60122327E-02 -0.44832525E-02
  0.20784620E-02 -0.36521470E-02  0.54260497E-02
 -0.45276868E-02 -0.10464541E-01  0.23689005E-02
 -0.70595272E-02 -0.19659593E-02  0.28541856E-02
  0.23515493E-02  0.48001638E-02  0.57374018E-02
  0.12265282E-02  0.70759695E-02  0.46456268E-02
 -0.56379015E-02  0.56764936E-02  0.16408646E-01
  0.20227621E-03  0.90572360E-03 -0.41819605E-02
 -0.59563178E-02  0.36249730E-02 -0.13798502E-02
  0.68988411E-02  0.42617709E-03 -0.75600160E-02
 -0.72392135E-03  0.43284575E-02 -0.32050264E-02
  0.25745460E-02  0.61577249E-02 -0.98406160E-03
  0.31726719E-02  0.24204845E-02  0.13997719E-02
  0.24272547E-02 -0.27643195E-03 -0.13445357E-02
 -0.16579608E-02  0.44850909E-02 -0.40384995E-03
  0.10310411E-01 -0.50523317E-03  0.24656641E-02
  0.40049845E-02  0.57763539E-02 -0.31945852E-02
  0.43133020E-02 -0.52972838E-02 -0.26279847E-02
  0.48542056E-02 -0.66984854E-02 -0.82208121E-02
  0.12171804E-01  0.30221183E-02  0.35181672E-02
 -0.26230202E-03 -0.45533916E-02  0.17998407E-02
 -0.11862976E-02  0.39785485E-02 -0.19741434E-02
 -0.77084373E-02  0.10610838E-03 -0.10156764E-02
  0.27969526E-04  0.63255628E-02  0.11859217E-02
 -0.10935408E-04  0.68051752E-03 -0.18776693E-02
  0.30602478E-02 -0.16476812E-02 -0.12815544E-03
 -0.55350404E-02 -0.40564340E-02 -0.21688866E-02
 -0.10587948E-02  0.14864714E-02  0.45000118E-02
 -0.10158102E-01 -0.46205757E-02  0.52252094E-02
 -0.74405488E-02 -0.27218311E-02  0.40146332E-03
 -0.70995236E-02  0.10310477E-01 -0.39876888E-02
  0.11077449E-02 -0.26394600E-02  0.50129338E-02
 -0.30928738E-02  0.52849072E-03 -0.22899301E-03
  0.29347734E-02 -0.16992562E-02  0.39528206E-02
  0.71722994E-02 -0.23375092E-02 -0.60482355E-02
  0.18930346E-02  0.16696920E-02 -0.11939199E-03
 -0.19808445E-02  0.55136663E-03 -0.38834536E-02
  0.59953372E-02  0.16218723E-03 -0.46720583E-02
 -0.65081031E-02 -0.27303075E-02  0.59547306E-03
 -0.36262909E-02  0.60585350E-02 -0.55218145E-04
 -0.43116356E-04  0.47823471E-02 -0.50676556E-02
 -0.72147159E-02  0.48490206E-01 -0.16155516E-01
 -0.15582710E-03 -0.14257861E-01  0.28710738E-02
 -0.46996911E-02  0.30017504E-02  0.17521466E-01
  0.82760353E-02  0.57160460E-02  0.13588661E-01
 -0.17488862E-02 -0.68584512E-02 -0.90985004E-02
 -0.14429265E-03 -0.16785117E-03 -0.85107127E-02
  0.63961851E-02 -0.49752921E-02 -0.48927990E-02
 -0.10082930E-01 -0.12172287E-01  0.38202229E-02
 -0.24623886E-02  0.31903651E-02 -0.43602664E-02
 -0.11115150E-02 -0.12672791E-02  0.85967347E-02
  0.20673605E-02 -0.18885163E-02 -0.26173564E-02
  0.63603663E-02  0.31043676E-01  0.13623802E-02
  0.16875400E-01 -0.44503748E-02  0.15940245E-01
  0.14368340E-01 -0.32681777E-02  0.11350420E-01
 -0.64730793E-02  0.53150705E-02  0.11614565E-02
  0.24110224E-02  0.44884262E-02  0.11874244E-02
  0.47651613E-02  0.28817097E-02 -0.86101228E-02
 -0.84648499E-03 -0.12977709E-01 -0.28673302E-02
 -0.33259235E-02 -0.11078296E-01  0.14176810E-01
 -0.16009003E-02  0.14734973E-01 -0.68236095E-02
 -0.13607907E-01  0.20750944E-02  0.11586799E-03