polyura_soft                            
  0.900000000000000     
    16.2460999999999984    0.0000000000000000    0.0000000000000000
     0.0000000000000000   16.2460999999999984    0.0000000000000000
     0.0000000000000000    0.0000000000000000   16.2460999999999984
   C    H    N    O 
   124   252     0    28
Direct
  0.3750405573975177  0.1088979690939576  0.2210166143253525
  0.0304666717063693  0.3832639012128896  0.1711959749736496
  0.1317570411185783  0.3710754479752260  0.1584480176910953
  0.3283898395649736  0.1237618946150176  0.3207466599506718
  0.2507076268037101  0.2902939394171346  0.0914293742994936
 -0.0108313899495992  0.4338115808330377  0.0898639044503616
  0.3697197266555984  0.3554095855372364  0.3409061789930283
  0.9294061477551573  0.3652574686902781  0.0258140159535952
  0.0298240902561238  0.2253778307604692  0.3586917545121738
  0.4769447665071375  0.1411078874219416  0.2152209659806245
  0.2736831327972301  0.2277998991875302  0.0118984534172757
  0.1562866114165824  0.0105018295198779  0.2222810491240462
  0.2150464710649665  0.1427118829134513  1.0092619137406824
  0.3863499103456561  0.1463604682654037  0.4000428467109988
  0.9292855349932996  0.2103673734750501  0.3786731413389976
  0.7291703002819699  0.9701527441905949  0.2171115979740762
  0.6782447550058142  0.4234703231806967  0.1822952358785866
  0.8805812064886681  0.1493103820063691  0.3075981199091610
  0.6611019557286913  0.2629659055300796  0.1676010405622052
  0.6705285848620608  0.4137202097253360  0.2851833877418714
  0.7656542256676901  0.3959658506057609  0.3226759843693948
  0.6270394851805178 -0.0315800720742994  0.2010285116462679
  0.7972856914284161  0.4695095742077963  0.3891395931774298
  0.7378479025249579  0.6504826415171118  0.1707588509744832
  1.0225799994591720  0.1030845398783721  0.1667073370078146
  0.9215453508578239  0.1221467791710334  0.1526118706013436
  0.7247437977691285  0.5260870800366696  0.4360636975555032
  0.7868136503098526  0.9083286446369656  0.1528586945473008
  0.5509013820832878 -0.0086785351963836  0.2672924078147097
  0.4395911874520494  0.3304373079039477  0.4199402089615601
  0.9415779178301624  0.2275979934012306  0.9279161998708453
  0.4425799555293860  0.7200092667311117  0.4223100112986136
  0.3440338080626096  0.7995901595051981  0.9114248990751921
  0.4029883094373327  0.4247467471158431  0.2690684491054136
  0.2214425403804411  0.8574817634672782  0.2059849656826848
  0.2874558759821260  0.6446279516896835  0.2819184323238410
  0.1881135497387366  0.6170305085061484  0.2518428583920840
  0.3668580498342622  0.6332831887988424  0.2103457277012204
  0.3127813734280632  0.8450810121873591  0.1528433473427421
 -0.0446035279346317  0.6972667232972444  0.2350244913590053
  0.3270779786582676  0.9064142255230877  0.0689081728032852
  0.4222874363523491  0.8704554554274857  0.0321588958821297
  0.3790107147376106  0.7887636731969797  0.4644998758617566
  0.3721242181340243  0.5375742872832403  0.1648968459382679
  0.0323211434813815  0.6296507790651569  0.2539781167385174
  0.9258224932474421  0.7415022561247832  0.3197739887336228
  0.9869452868726041  0.9406637970738875  0.4653298821559140
  0.0514378946337828  0.0107197063597007  0.2067510388127125
  0.7042470060383437  0.2266973783014584  1.0076976594860521
  0.8014092097725265  0.6302202443320768  0.0849886130972358
  0.9886702686347575  0.8040068317000285  0.3734004117252342
  0.6365496913502877  0.6459443704486275  0.1421269271115695
  0.5853315888976258  0.7050385924016371  0.2124281421877684
  0.5581084738885448  0.6689369845746910  0.3068853610169850
  0.4131973071608803  0.8866034937472274  0.4911492656011768
  0.6960709199158051  0.1876699088595707  0.1025684924122496
  0.0575932875915982  0.5529219015445612  0.5066853619929412
  0.9551976023151095  0.7920767325885810 -0.0053232208914961
  0.1033551311889375  0.2723692787127946  0.5879423377076677
  0.1795924150594598  0.2059444544044003  0.6297975355657333
  0.3504018013504335  0.2887364756421930  0.7981825555709263
  0.2804238135763520  0.3539032560058118  0.7560829649135236
  0.2651560692009273  0.4392996723040870  0.8123281777261626
  0.1821635810978963  0.1089089585692554  0.5974082596721287
  0.3830408692823171  0.7586764278106166  0.8235032392430007
  0.4812335693997165  0.2069705680721405  0.7663242486402186
  0.1876009381348317  0.4209775471874357  0.8780815014004363
  0.0337416893487134  0.4984131015113372  0.6632478149936409
  0.3843990296252485  0.2795616340977456  0.4936883585690173
  0.6099256427768125  0.5949755740445606  0.5997261385006014
  0.6436817610908886  0.0959807963445466  0.5184442455508244
 -0.0022374410750624  0.7321260702716744  0.6893885648567630
  0.9899056883872998  0.2160757070065730  0.8382811498858739
  0.8968991897188151  0.4558157862445995  0.7775323417996555
  0.0238347166765417  0.8711509218368122  0.9990759846646612
  0.8753077282987435  0.0992692884402999  0.7649218756728187
  0.4944927184762987  0.1176638710340110  0.7123237105942075
  0.5732641524950772  0.0738092145231548  0.7521433917964316
  0.9659516140629932  0.4272311512759027  0.6984020640461553
  0.6599664029328337  0.2607983824457821  0.5393210801618910
  0.6907079513233020  0.2608770262762883  0.6386244998590055
  0.8082211395162456  0.9561015223857060  0.7016696737995194
  0.7777127031347761  0.9335951087161098  0.6015364515144984
  0.8135282333014102  0.3937731972102451  0.7877439414141708
  0.7847699263595258  0.3091754859324196  0.6407282852673626
  0.6139265675027284  0.2163372653758376  0.9600359277608129
  0.6700234736277088  0.8133814033812123  0.4989329572946333
  0.6903305361650612  0.1800760049257055  0.4845092193406232
  0.7452664138192571  0.9578009709330352 -0.0032568267066507
  0.5458898822713829  1.0142982457323710  0.8334708387318950
  0.6681634700163153  0.8562178040782399  0.4020277505324975
  0.6797680514235179 -0.1145717015404603  0.5790313832150500
  0.2275467361326320  0.0918994860467892  0.9183973749337805
  0.0128629424437286  0.9267627856162834  0.5673472798787811
  0.6942703897557584  0.7985143467319225  0.9445142812249036
  0.2594129125182949  0.0455421893997188  0.6338350204156710
  0.5539548194089747  0.6007184959665103  0.9192724876594005
  0.2148622396505228  0.5190374027480927  0.9904489249175343
  0.1396578008475925  0.6184430890648763  0.4961483919489239
  0.2961244767077605  0.5509418724450209  0.5321005268180197
  0.2291188199492960  0.6261448993407767  0.5503335543788420
  0.1078197360189470  1.0026658178208252  0.9424623119821567
  0.0485421562086016  0.9222848740835202  0.9121968850343433
  0.3949479892790002  0.5390069396911515  0.6648578991519157
  0.1020329186281435  0.8721860955545846  0.5853702619524989
  0.2292456652488148  0.6233108283951805  0.9769751148983968
  0.5525716736663563  0.3600671042044047  1.0238091868956376
  0.4298772077119858  0.8079103719682734  0.7410031317684708
  0.1470901042616220  0.6950453151881670  0.9956232734754901
  0.0651570003880311  0.2836045505814218  0.4370183127031337
  1.0498361483540715  0.6577100435278512  1.0066926553778861
  0.4819596171511147  0.4931801865458773  0.6832969771149782
  0.5826411623036167  0.4979032785963935  0.9169134736952596
  0.5135181313939459  0.8632535641561776  0.7628411465089441
  0.1215326931536213  0.8333696932583222  0.6786289106122503
  0.6649494512421327  0.8928981709507439  0.9877029098034074
  0.5230148463992366  0.4526031739347926  0.9856166125753179
  0.8427382251810137  0.6695683684901659  0.6498202787261478
  0.8976292491162632  0.7275390425823155  0.7176455414014355
  0.5788120963943683  0.5379328018632366  0.6893875069631892
  0.7387354269702012  0.6754851441365323  0.6544289973900183
  0.6116408980548136  0.7420449549556170  0.9396648614697111
  0.9707305782954104  0.1360223594435797  0.7698195779552547
  0.3280100280848469  0.9298172656981928  0.5365034123346724
  0.0123874107086036  0.3081496641753764  0.1739198349888990
  0.3656281304727578  0.0349941513166807  0.2038998614365010
  0.0179931508476047  0.4105005311489849  0.2415052920935945
  0.1642022474805167  0.3436031290538573  0.2239940835600435
  0.1652661974784641  0.4391463648729931  0.1481597007495647
  0.2984418012908162  1.0856999785134656 -0.1050245548233975
  0.2784062374636638  0.1801815352507482  0.3126847107731165
  0.2831854222705689  0.0644753157975424  0.3322312943469370
  0.4795490194942648  0.2036591145412024  0.2556562033766751
  0.3358469380496030  0.1499397966501649  0.1698909176493725
  0.1920845233837963  0.0096235646093454  0.1576874153554330
  0.4685485489488120  0.3948103912838548  0.4486115851185389
  0.3086882523042807  0.3888118595295391  0.3741386978826790
  0.9423069299432496  0.4898756267065154  0.1132632051686058
  0.3448517370396916  0.2092903779405632  0.0201757693014079
  0.2750841257389356  0.2655371215004805  0.1581577226969795
  0.0424405573582500  0.2536085158410917  0.2891627968155819
  0.3651721189605488  0.6832990734937885  0.1528092295956013
  0.2837053014148332  0.3580190244853390  0.0897691473406857
  0.5872974085524364  0.2711689925656826  0.1523038487423239
  0.4974148336681337  0.1468750256610321  0.1427220746516554
  0.7300759909281386  0.2960099362259568  1.0088892734027208
  0.1999197236621860  0.7954997966463104  0.2424887517597817
  0.4298710905528385  0.6420648499950873  0.2495058990971797
  0.0406510377017961  0.4573606119303627  0.0406574090677966
  0.8767729699647449  0.3347781495736276  0.0689099362104326
  0.7251208116878411  0.4783861026711974  0.1579941251966139
  0.8979455258958734  0.2760377491737273  0.3945315932734763
  0.8913430463403700  0.4050793521785021 -0.0237215355977908
  0.8669800526006856  0.2377127508606581  0.9209803310474733
  0.1739633576923504  0.0742142970942266  0.2589247964388792
  0.0823699033366586  0.4840988688584093  0.4950827887072657
  0.4052699582210906  0.6570144898194242  0.4201575906757732
  0.2306150806064972  0.0959067214011492  0.0661885527734046
  0.7523712424212744  0.9420589969730632  0.2846911242295340
  0.0541810070262627  0.5418401690987761  0.7223033339102253
  0.6723967172761750  0.2493902670508947  0.2401927456260692
  0.8125955781430091  0.1309869634463304  0.3332803829364562
  0.6098735486785359  0.3797284877255935  0.3122008272027502
  0.6487801506590831  0.4742974223979678  0.3208795754608272
  0.6093818656938136  0.4361822618450328  0.1516363877538330
  0.6088052070927646  0.8953564740989947  0.1862761960320646
  0.7748502638477406  0.3315042497767033  0.3634603835255368
  0.8130884439509808  0.3872438624716482  0.2640945602686498
  0.9225840742430812  0.0887104669916123  0.3046127515780889
  0.8482771165499956  0.5088405698400139  0.3475864544954032
  0.6260960042068826  0.6808190033731447  0.0758219479706748
  1.0602750491666244  0.1605579275846254  0.1982302455583866
  0.9098439679690100  1.1612689435331562  0.0890893900845035
  1.0590303046641889  0.1071518945127186  0.1013110613231329
  0.6973679535316828  0.4766761881735062  0.4868439470374352
  0.6119947096107480  0.5742857763649682  0.1312559084396411
  0.6754522604241429  0.0407332583478507  0.4805487138080048
  0.7668477413563295  0.5755071746843896  0.4707884821481518
  0.6124623452626520  0.0067618192669785  0.1385612318849382
  0.5578889607079105 -0.0321699092410556  0.3380544405274338
  0.5678884466871001  0.0993582893869479  0.5035221803155392
  0.9270658582045598  0.1683166157548888  0.4404582523471276
  0.4409008469255364  0.9216041430970566  0.4312438385450822
  0.8594783976482409  0.7736750524876083  0.3186772238017321
  0.7574814579040209  0.8421027304745160  0.1715149568357401
  0.7602365483506410  0.1712819412488143  0.1366116140328340
  0.8840703239457587  0.0565490963299776  0.1471055836048864
  0.6671171731190424  0.5536630741806432  0.3963899425707787
  0.9909856981677589  0.1617180584455930  0.7008535300415375
  0.3628599542149306  0.7517323536498168  0.5287503527274530
  0.7630506668663148  0.6133073351483130  0.2305681357759331
  0.8909408673720133  0.8039686045394023 -0.0398916108756195
  0.1924384043419947  0.6100471456821340  0.1742218151592582
  0.1706273370114541  0.8575060879355639  0.1500675472206949
  0.9312906227548524  0.7729745670960222  0.0619750033378713
  0.0129568128595613  0.5758878677625778  0.4521336334929626
  0.2913293696793169  0.7149245561940634  0.3094545893136542
  0.3735223285230632  0.8514070935193099  0.1965711100090234
  0.1630926825339174  0.5501046699753781  0.2765984805655823
  0.3232880385891508  0.9806697743647641  0.0875494974407087
  0.3044702186097039  0.5962150694748475  0.3369330488228304
  0.3085636114256078  0.7738352470502964  0.1307509383794764
  0.2697712520731689  0.8990910830689827  0.0209075189614097
  0.4706403901900896  0.8568499566749193  0.0888186549183268
  0.4523675861946515  0.9159433654877236 -0.0196511951712141
  0.3121100319223717  0.7962712486354481  0.4294643312923169
 -0.0302849938029777  0.7375102459480225  0.1752854565863308
  0.4349928452953725  0.4831767551352727  0.3033379519170271
  0.4482400642844126  0.5264354092728932  0.1621291474739881
  0.8979777283737450  0.6513498318948499  0.2203903657723865
  0.3219677219437090  0.8707484171203844  0.8953756544799218
  0.3517628577303229  0.5374132185650787  0.0922464934573053
  0.4502098160205242  0.3865690729846296  0.2233924699411587
  0.0393263620791149 -0.0428657536467707  0.1530773130350188
  0.0133683205865567  0.5765169509733769  0.3049657015991318
  0.0495379982490532  0.5868752959668012  0.1943711446794704
  1.0489675247905157  0.9516089129533116  0.4197708134231475
  0.9094844654133116  0.6852097637421545  0.3638534437077269
  0.2718920367497856  0.9223165208272982  0.4835178862308610
  0.2639582836156370  0.2635842728148042  0.9457121133299936
  0.6293970770854266  0.7647240979202290  0.2222082486833935
  0.4980572043909849  0.7085234180879851  0.4732643677616348
  0.5205165757766121  0.7255472179089928  0.1821724975824142
  0.6085412362317600  0.6625766184852736  0.3627180806141210
  0.7571384183360846  0.7202908371058131  0.1912736646095488
  0.0044812358027835  0.9923041480504330  0.6001326573244371
  0.8301964543905509  0.6948040339987929  0.0592148449692984
  0.5275286498033178  0.5984296672813723  0.2998054095431162
  0.7541580741663261  0.0409424138895964  0.2273320507551437
  0.8373915528666851  0.4326143649085508  0.4399771224201541
  0.7540980045180893  0.6040260452331714  0.0333151758262918
  0.8549836616874481  0.5843317744215759  0.1048234917820726
  0.0218666522717673  0.9869776238508716  0.2711478227725105
  0.6529839741900748  0.1269098081017247  0.1048631104748487
  0.2794739081719096  0.7724640654151009  0.9322856067250862
  0.4893752492521480 -0.0337993696779673  0.2321130946917134
  1.0387243967814885  0.7679284878258621  0.4196183178803427
  1.0285981268427522  0.8438621559815634  0.3156304539758487
  0.1008047840958516  0.4696340657758519  0.6397956774891160
  0.3463114702597755  0.2889795176057681  0.3160594582614335
  1.0843625160963650  0.8356781424803762  1.0249086810064121
  0.1574860258199659  0.5980507083838517  0.4257767771987967
  1.0221411852935243  0.6515902678885919  0.0799426515033384
  1.0783396295816265  0.8708670579289275 -0.1350138522672208
  1.0387794735081419  0.5948050066669512  0.9702971910437168
  0.8539233315072028  0.9122142778425973  0.1868942968189893
  0.1392577832847096  0.3018350962082858  0.4361989912530613
  0.9429655962530947  1.0053922584132766  0.4580030974991740
  0.2477183668181776  0.2383771532930708  0.6238459279129600
  0.3775335906133797  0.3147421884598819  0.8649054673796410
  0.3214997543043563  0.4695089841666791  0.8534325598397150
  0.2169604829560994  0.3186784641130040  0.7428368550760613
  0.1650605469132171  0.2038247650383596  0.7045177508012145
  0.1191298337555961  0.0760722786723622  0.6176119757118049
  0.1495344751114349  0.3257275411615531  0.5639600037690363
  1.0538522454732915  0.2968574684300195  0.6392834114644863
  0.2221946936326880 -0.0158823691163281  0.6584251842643413
  0.3110867708980544  0.2272157358016784  0.8168271859014743
  0.3072916600398002  0.3716270141328950  0.6848852873852799
  0.8517626713931953  0.0677058310243534  0.8289754439668969
  0.4282657043838256  0.2549000397982618  0.5478666809736545
  0.3415919697059113  0.3317943826040292  0.5293994198590988
  0.5482188057800340  0.2418836298058152  0.7770679426454447
  0.8691362755241812  0.5232101081814368  0.7688181084787538
  0.2427247495890945  0.4912461562760548  0.7630477431969029
  0.4550092385201374  0.1840365485354144  0.8336938720826258
  0.1873330046166791  0.1039668243449903  0.5203266863352456
  0.5007122811574363  0.2973403746265587  0.3908390064057219
  0.8269007210229022  1.1527666046568910  0.7471279614896321
  0.0307845712972344  0.3509431803271289  0.4405235576879789
  1.2418085572304898  0.6263632936906161  0.9036271082434969
  0.1895368026971302  0.4892588120583347  1.0544034414419530
  0.1305837793204958  0.3914458711289854  0.8401941449325304
  0.7757340823212067  0.9658487329248977 -0.0716059738703188
  0.9875387653829831  0.2843193843008812  0.8081705536698297
  0.5195396072846084  0.6138646381698133  0.8532262813068147
  0.1433578130390818  0.1644518529428961  1.0168979286401709
  0.5021188160075982  0.1396067667105639  0.6401037686530359
  0.4302589318720580  0.0784252119942011  0.7247218059038592
  0.9366602323599793  0.4529199513595388  0.8451940280608387
  0.8262350177516272  0.9019664163849823  0.7501508290988805
  0.6127152214262731 -0.2313493168057866  0.5182500038739172
  0.6011591422996262  0.0282895180820015  0.7005148390016389
  0.6373846806539015  0.2902050863529704  0.6842367432474348
  0.6991341263005596  0.1906761254775753  0.6632121340988364
  0.8105029778556684  0.3693540328864579  0.8598493229310384
  0.7867489069248221  0.3807649892478988  0.6129160357863208
  0.8300091936963608  0.8925072583242698  0.5676416537140000
  0.6771398823544121  0.3295725121831000  0.5102632015641155
  0.8296773656864941  0.2667430638061346  0.5982062554956247
  0.6303528281503898  0.1202764640788757  0.7702770097950609
  0.7760395359278803 -0.0008907987834514  0.5663263798164360
  0.7302003320456054  0.0255435669451477  0.0250820044369346
  0.6180539030442040  0.1961802050348829  0.8879268166640486
  0.7313240425740353 -0.2290441471080800  0.4958175994445584
  0.5854551687412115  0.2625781142335907  0.5393174037664381
  0.6611281371238161  0.1917147674498220  0.4186776067500048
  0.4033476672196999  0.0890312135943316  0.4456006558267741
  0.7437367800001791  0.4260365791955291  0.7751755677362865
  0.5982650200054703  0.5514119379395003  0.5428714702313732
  0.6137141974072313  0.3634050588119878  0.0640858398396238
  0.7488245121582371  0.9903347958972545  0.7342020655872763
  0.6519660056180641  0.8519064422418808  0.6393764081701360
  0.1457049009173665  0.7365642255530936 -0.0659672181432162
  0.4369881700386042  0.7149233208768554  0.8481985837352897
  0.4879644304565832  0.4400156870966651  0.6305233289867895
  0.6288946031365549  0.9179450227286881  0.4077925518538076
  0.2804794919112500  0.4853944855034093  0.9760669926998030
  0.1919159314724779  1.1305586788837281  0.8617324706837309
 -0.0435381082916239  0.8847970795142860  0.5916551139918985
  0.8696832792189392  0.7942350467005727  0.7333525545789056
  0.3895020467745053  0.8390581749929088  0.6860091128821650
  0.7645783643247951  0.1688458368692775  0.4760112029051176
  1.0043861569138479  0.3722120416643847  0.7274760878626922
  0.5492659942726691  0.8760356169469031  0.6991458827623461
  0.4684821482271490 -0.1267052523998041  0.5416308839991077
  0.2930237656366929  0.0764546507665169  0.6937163474257837
  0.0878178459085042  0.8173436511470151  0.5378474226333241
  0.2212939823855126  0.6417122987369334  0.6239879284341934
  0.2588301742328474  0.6923766191897963  0.5291981529774351
  0.3253285845187350  0.7183658837639619  0.7985203504665062
  0.2857987217113818  0.6525124424184963  1.0174819636685848
  0.2618602672515732  0.4854657082977980  0.5574075637225370
  0.3037438522208782  0.5362705155123464  0.4568920196584019
  0.0963670033056609  1.0024369720805861  1.0186712606782902
  0.3415323000717351  0.4871065892926678  0.6703343590801091
 -0.0180081164623740  0.9463214493887229 -0.1137875353699160
  0.3832512458588224  0.5974440096142881  0.7110801457872196
  0.0772342770180094  1.0684635753788150  0.9127741362017584
  0.1587015984676690  0.9064997047734559  0.5560126127991354
  0.0035073637351315  0.9239187100818831  1.0461355319324324
  0.6545376771475536  0.4918150164530648  0.9342048317180158
  0.1091260456973930  0.6880729727134982  0.4914698373652400
  0.6210781917828289  0.4748364254890287  0.6916651079887766
  0.4538730931646747  0.1727492559752648  0.3827754119287912
  0.4787004696111979  0.4598380978214419  0.7506995708423109
  0.2084685687455939  0.3707753450787665  0.9340226491273991
  0.6524819313812722  0.0778007384696913  0.5913131448319480
  0.4565242635267603  0.7478884682961848  0.7039069611234428
  0.6073857792402418  0.9826630024437361  0.8620907039994652
  1.0080642868380141  0.0738361559487651  0.7902636740928873
  0.8643871564695814  0.5995350178655082  0.6457324835562125
  0.7367172872288000  0.8739073721091613  0.3786025285401773
  0.4940938250640876  0.3350371938877381  1.0644655185957108
  0.7542168370011000  0.7761982516001923  0.9822850693744671
  0.8617779135492508  0.6938594149905202  0.5804402966073772
  0.1738415819175881  0.7796328972563776  0.6798774413411535
  0.5648853670253284  0.8321439861648064  0.8067232613946822
  0.1473968319834006  0.8851916885966080  0.7255996756079142
  0.6267579185265539  0.8131615639301129  0.3592650726898927
  0.5687706376250096  0.7755939788718768  0.8856240979679872
  0.6052973610695553  0.9209276591123184  0.9489582610510428
  0.6256580933890620 -0.0635741968487773  0.5590638294623594
  0.9013791184447657  0.6818764008038948  0.7726324713895557
  0.5000800394668292  0.4966284565994081  1.0407097639799623
  0.0277987390128377  0.6736296491015141  0.7255482087438184
  0.1636050333717271  0.7405422985948148  1.0525940264238780
  0.6001272687029392  0.5810228333932003  0.7467898973839601
  0.5037509927102355  1.0534282546486498  0.8823179874465433
  0.4559660027855966  0.4350678621414885  0.9523854601731362
  0.9235504681399191  0.4033606123804208  0.6411408616759875
  0.5690565607934243  0.7551289823413820  1.0002545912618579
  0.5730942486097461  0.4652766728883307  0.8499550133765633
  0.0162502689888444  0.7208103144198773  0.6166148543703723
  0.6366505536152705  0.8791771613715437  1.0569106168482096
  0.9545182073632027  0.1629239396204072  0.9655685776505653
  0.7094736835665660  0.7380160070685126  0.6231538284494568
  0.7238805724709403  0.8065328425760904 -0.1239963484013362
  0.7550622614032958  0.1830666577637057  0.9722725448389561
  0.5025698821392969  0.6189424500239205  0.9702998049435749
  0.7298468114538307  0.6661171604148680  0.7291447559130988
  0.0611438208048971  0.1553779415720832  0.3551671128866938
  0.3063667263412791  0.8839712313919328  0.5955725840653692
  0.5647176370245726  0.6518156547257721  0.5987038297561414
  0.0620755030963228  0.2172653720762186  0.8641677324394170
  0.5690056769304909  0.1729087930299001  0.0015752101157739
  0.1581166588048210  0.3085401340984950  0.0903516774279840
  0.3264141161149722  0.2113449075120902  0.4541986127829691
  0.3331344919170582  0.4652849601955834  0.2125711823009350
  0.9891428542476047  0.3048103485218092 -0.0300982500280892
  0.5469646685093040  0.0838057660947801  0.2711780877591287
  0.8748134696426157  0.1790201515955951  0.2165441947986152
  0.7101591009646960  0.3435659282510032  0.1440951917084513
  0.9357254099982301  0.8703641333573108  0.4202519832985075
  0.2082354451098236 -0.0594893774176415  0.2649425429851641
  0.4022858354628372  0.7842000430948196 -0.0115502871684510
  0.1141040989208544  0.6799742103617248  0.2776544248052743
  0.4873744596287089  0.7427441806277394  0.3365808546292259
  0.4147568805522575  0.2650988784789258  0.7355143259901363
  0.0475041198410177  0.2347391768018804  0.5156817634520856
  0.7043321372366723  0.6015430862970237  0.6004444939457482
  0.0477573727556423  0.8021378511003264  0.7266975395479085
  0.1523313150135215  0.4999684417650912  0.9217040392064197
  0.8278586765061294  0.3180453066198607  0.7312902710325733
  0.8809546811299594  0.0239350132905491  0.6927771349414299
  0.5647229182362776  0.3022915761193815  0.9441980587399083
  0.1971073047894523  0.9983861337565080  0.9174346757392420
 -0.0008973085639465  0.5550595562789747  0.5868381154747081
  0.9967434018011925  0.7147696346929300 -0.0496862872474354
  0.3328548818443004  1.0185206814833263  0.5734567472514567
  0.3826233355517251  0.5658944512212022  0.5688578686004363
  0.6343399675635928  0.6528835406120823  0.9254899730437015
  0.4824114039888990  0.9422629049493477  0.8086279704283484
  0.8112704482164373  0.9162619361997139  0.0562317101181879
 
 -0.39131315E-04  0.10533281E-01 -0.20346107E-01
  0.76207421E-02  0.78402956E-03  0.32133038E-03
  0.15647625E-01  0.83900194E-02 -0.25025218E-02
 -0.38678488E-03 -0.34079138E-02  0.32982348E-02
  0.10142495E-01  0.60589500E-02 -0.84178623E-02
  0.34043159E-02  0.58714312E-02 -0.74048669E-02
  0.39077516E-03  0.66003803E-02  0.29031282E-02
 -0.57933176E-02 -0.79838882E-02  0.59925132E-02
  0.77667974E-03  0.42911532E-02 -0.53884414E-02
 -0.19810992E-02 -0.82439105E-02  0.50805860E-03
  0.76797689E-03  0.28516765E-02 -0.13150966E-02
 -0.21365675E-02  0.15956648E-02  0.50709596E-02
  0.17402718E-01 -0.21960282E-02 -0.11471355E-01
  0.98508265E-02 -0.65716949E-02  0.64312906E-03
  0.17569749E-03 -0.42199400E-02  0.75721685E-02
  0.80822713E-02 -0.21009047E-02  0.79431149E-03
 -0.40760345E-02 -0.19321917E-02 -0.50487128E-02
 -0.84965323E-03  0.21319095E-02 -0.14730736E-02
  0.11632826E-02  0.16206431E-02  0.13001691E-02
 -0.63470774E-03 -0.12583285E-01 -0.26712341E-02
  0.25228155E-02 -0.49449869E-02  0.12275153E-02
 -0.61656959E-03  0.57043380E-02  0.62983525E-02
  0.87115641E-02  0.40528092E-02  0.27529331E-02
 -0.22255953E-02 -0.78372195E-02 -0.15315388E-01
  0.78964739E-02  0.81041021E-02  0.83686930E-02
  0.26946902E-02 -0.29889708E-02 -0.82583396E-02
  0.18447634E-02 -0.42696426E-02  0.91170632E-02
 -0.42279044E-02 -0.39798568E-02  0.12182224E-02
  0.21491277E-02  0.18435274E-01  0.42128086E-02
 -0.81651350E-02  0.52696173E-02 -0.20765644E-04
  0.89630596E-02  0.84875027E-02 -0.16441402E-02
  0.97194541E-02  0.51204506E-02  0.50956817E-02
  0.49407779E-02  0.46476142E-02  0.17235361E-02
 -0.19482118E-04 -0.86693216E-02 -0.55197862E-02
 -0.16466030E-01 -0.47832024E-02 -0.10662632E-01
  0.37586443E-02  0.93653360E-02  0.10354629E-02
  0.27203520E-02 -0.40531339E-02 -0.82012856E-02
  0.36705325E-02 -0.12168739E-01  0.15085526E-02
 -0.80784718E-02 -0.11484582E-02 -0.21254659E-02
 -0.85891837E-02 -0.13414084E-01 -0.21454339E-02
  0.38078096E-02  0.65654381E-02  0.60724228E-03
 -0.13390809E-01 -0.35699488E-02  0.42585765E-02
  0.94575206E-02 -0.10392121E-01 -0.47100318E-02
 -0.11204959E-03 -0.95374701E-02 -0.56249062E-02
  0.91286650E-02 -0.50999910E-02 -0.12310872E-01
 -0.75086911E-02  0.39919316E-02  0.54436638E-02
  0.14950872E-02 -0.47860834E-03 -0.19581330E-02
  0.21963494E-02  0.20178169E-02  0.28727487E-02
 -0.13353323E-01 -0.44650202E-03  0.91240890E-02
  0.10697633E-01  0.56496144E-02 -0.84104910E-02
  0.90064958E-03 -0.87978618E-02  0.10281404E-01
  0.10441086E-02  0.29246472E-02  0.77364962E-02
  0.60314092E-02  0.25448783E-02  0.23861039E-01
 -0.17118860E-02  0.50365559E-02  0.11794678E-01
  0.32334752E-02  0.45655631E-02 -0.12017380E-02
 -0.17525875E-03 -0.83671147E-03 -0.79560882E-03
 -0.47596801E-02  0.96126954E-02  0.42055899E-02
 -0.18652162E-01  0.62246538E-02 -0.12182786E-01
  0.54084225E-02  0.35557357E-02 -0.81183041E-03
 -0.14915444E-02 -0.64990878E-02  0.51922511E-02
 -0.56642655E-03  0.16190992E-02  0.34936597E-02
 -0.20583367E-02 -0.68843105E-02  0.76988926E-02
  0.30995752E-02  0.33068157E-02  0.32933953E-02
 -0.18451320E-02 -0.11794130E-01 -0.98415398E-03
 -0.13579069E-01  0.51045721E-02 -0.11464634E-02
  0.98228489E-02 -0.48725451E-02  0.53743798E-03
 -0.25811520E-02 -0.13191866E-02 -0.17995482E-03
  0.14596586E-01 -0.99376198E-03  0.27298517E-02
 -0.15828645E-01  0.13545214E-01 -0.66419845E-02
 -0.29439585E-02 -0.11027671E-01 -0.55634622E-02
  0.11393878E-01  0.11766639E-02  0.49259961E-03
 -0.30632443E-02  0.45762162E-02 -0.66392252E-03
  0.41982955E-02 -0.23479144E-02  0.11156407E-01
 -0.10419718E-01  0.10388918E-01  0.60848425E-02
 -0.45402658E-02  0.47865025E-02 -0.62544654E-02
 -0.34911485E-02  0.53933398E-02 -0.33718930E-03
  0.57835019E-02  0.41332790E-02 -0.93739582E-03
  0.36408999E-02 -0.47966939E-02  0.73822903E-02
  0.54426181E-02  0.20507134E-02  0.22269800E-02
  0.12735528E-01 -0.22519555E-02 -0.27997396E-02
  0.85790603E-03 -0.78137122E-02  0.37761245E-02
  0.96785737E-02  0.80529586E-02  0.84892927E-03
 -0.25684926E-02  0.25348084E-02 -0.59585125E-03
  0.26566792E-02 -0.14017806E-02  0.16419421E-02
 -0.10874685E-01  0.15552122E-02  0.20168992E-02
 -0.59741715E-02 -0.40429622E-02 -0.72733526E-02
 -0.44999325E-02  0.65237653E-02 -0.12323189E-01
  0.10367042E-01  0.29853535E-02  0.83011738E-03
  0.47844205E-02  0.95178124E-02  0.82294360E-03
  0.37982126E-03  0.11226305E-02 -0.17070706E-02
  0.52348864E-02  0.27990544E-03 -0.37099179E-02
  0.27149829E-02 -0.17016011E-02 -0.12847498E-01
 -0.11449287E-01  0.58571958E-02 -0.88784918E-02
  0.87160955E-02 -0.14315212E-01  0.20044664E-02
 -0.24919835E-02 -0.35169998E-03 -0.51886727E-02
  0.79818339E-02  0.27215862E-02  0.31872479E-03
 -0.70727362E-02 -0.43603047E-02  0.28977390E-02
  0.34468830E-02  0.83046946E-02  0.49503082E-03
 -0.10892564E-01  0.84016068E-03  0.99340713E-03
 -0.13977343E-01  0.19451749E-03  0.47602333E-02
 -0.11836161E-01  0.73439905E-02 -0.43953436E-02
  0.21508641E-02  0.67235109E-02 -0.18158735E-02