The tau-point only version
0
Gamma
 1 1 1
 0 0 0
