polyura_soft                            
  0.900000000000000     
    16.2460999999999984    0.0000000000000000    0.0000000000000000
     0.0000000000000000   16.2460999999999984    0.0000000000000000
     0.0000000000000000    0.0000000000000000   16.2460999999999984
   C    H    N    O 
   124   252     0    28
Direct
  0.3187445564951985  0.1482742954499101  0.3343409780822974
  0.1053700580632908  0.2980525274677404  0.1778703784678926
  0.1756749323813347  0.2901995111811018  0.1010018259363790
  0.2797750615367187  0.1678290656649426  0.4283163588830218
  0.3150836257914614  0.2114229192907769  0.0662670647951603
  0.0211156718694249  0.3452461337320077  0.1428301943705454
  0.3887307961965240  0.4072176107198451  0.2408244630730906
 -0.0456570569084334  0.2874003763638602  0.0908349240168898
  1.0067782432433532  0.2278857376232337  0.4137700205124258
  0.4123567856799801  0.1117428597312478  0.3469189642645703
  0.2800615119057559  0.1222840962297774  0.0292080010430272
  0.1257568421893190  1.0397087233793938  0.2526508029650495
  0.1887849155234203  0.1065042651713035  0.9696748220250176
  0.3107742343487109  0.2577897457145568  0.4615238687656426
  0.9036494942013468  0.2301069687495764  0.4261724454203796
  0.6818549078736140  0.9879645926303715  0.2286978632711222
  0.7259483762765446  0.3764010887436383  0.2260522227200903
  0.8471812748759640  0.1484511381212393  0.3900380763233965
  0.7249830286384527  0.2351809944638096  0.1352900621265510
  0.7008822386401813  0.3840911391202050  0.3243089614871053
  0.7523220297995179  0.4619026262429046  0.3665216264881872
  0.5792219392306907  1.0076724948314162  0.2385805403667275
  0.8447877382276324  0.4835688999944338  0.3313109335537858
  0.6481765335120134  0.6723668273128636  0.1641628254532111
  0.9632157877213003  0.0517564735273371  0.1852193701142545
  0.9289372453770485  0.0543184433238630  0.2804445635843743
  0.8851487672016158  0.5114721467133764  0.2372255895713651
  0.6924553509104908  0.9163816647326292  0.1537901473915274
  0.5531510862700294  1.0960425894136587  0.2780277567581455
  0.4429964054276433  0.4253986651421853  0.3287619073215196
  0.9429932257558749  0.2783888725611401 -0.0744248479649240
  0.4630580175855835  0.8422791520897815  0.4281697490384310
  0.3483729188491494  0.8157256047252137 -0.0528184897355477
  0.4358882047332520  0.4376438328659009  0.1528104767224053
  0.2419447372870075  0.9157067788453586  0.2641505042195684
  0.2204344241394845  0.6263055313406577  0.1010800490745526
  0.1514108991148952  0.5992456922857664  0.1733772663733112
  0.3215430560402536  0.6362359303353303  0.1450074916676988
  0.3400938663518115  0.9003606103898067  0.2319373245536596
  1.0102170364981413  0.7102578739759781  0.2868062264807469
  0.3400836564253972  0.8884648167653614  0.1279738885806218
  0.4305656166122873  0.8629403690536037  0.0813147924216172
  0.4627343653992153  0.8741176111519607  0.5258652878801563
  0.3934647135304050  0.5848567136826299  0.0889818165373999
  0.0869198001130840  0.6494343820001082  0.3119766866815339
  0.9455238480524479  0.7167816519089086  0.3676055060860689
  0.9748707885638807  0.9053369495838609  0.4754633638902959
  0.0543798214998234  1.0036459682853041  0.1810687983318885
  0.6446784475746707  0.2677100708461223  0.9777566204631619
  0.6424242916102497  0.5962135496946961  0.0939314119806794
  0.8974608912397353  0.8090085616354220  0.3727160493085200
  0.6508050215120169  0.6330267580670987  0.2634323496921875
  0.6278174895603879  0.7025010442173979  0.3386807392672928
  0.5248438998700006  0.7197203568838557  0.3383655574600670
  0.3942292277635421  0.9522868817560324  0.5408516456369930
  0.6675031214992052  0.2004092674372245  0.0572138411248235
  0.1654658649126741  0.4407871369454012  0.4247091603936595
 -0.0537007291887032  0.6891564932757899  1.0557769019761136
  0.0431344200325741  0.1708813240287423  0.6548431295016754
  0.0962243741581069  0.0913903904835692  0.6915914681837176
  0.3905124176910327  0.3202961743480638  0.7018434678579837
  0.2985054404091336  0.3576178923127905  0.7300398983168369
  0.2916989859179349  0.3707373354696916  0.8312745441377271
  0.1966691704546994  0.1209595399263935  0.6839208680633555
  0.3486728277496232  0.7446491794956930  0.8708406550695864
  0.4296927560040406  0.2041168714367535  0.8254652290250142
  0.1999534769989733  0.3504087929277619  0.8694429332202828
  1.0436207146779211  0.4776373614188943  0.5256869333441476
  0.4272168134168769  0.3472619546103832  0.3952979094482085
  0.6771668295053589  0.6442186372138615  0.5725660276419230
  0.5754829169192964  0.1737776443222868  0.5299989720577194
  1.0644066407080237  0.7680549363941968  0.7121633283256961
  0.9416841670229945  0.2026597981011176  0.8568022878207395
  0.9482646341930676  0.4485895557224527  0.6579035435946030
  0.0163369878921914  0.7318096973971604  0.9863191739186484
  0.8826156692521133  0.0491775183910829  0.8193794714453059
  0.4680303492190178  0.1082656264399195  0.8403769808403223
  0.5320195869402899  0.0648176056125426  0.7687390603478333
  0.9443530562201299  0.4671283552258458  0.5522351925675566
  0.6084412201937860  0.3014459405068617  0.6555551231271152
  0.7007199086857623  0.2863043560318748  0.7155441753786923
  0.8313883890550258 -0.0165429376855122  0.6971250400765954
  0.8156830257864163 -0.0054442955863584  0.5971987118758358
  0.8500254484136299  0.4525102655894087  0.6915487855337258
  0.7947861015222176  0.3045988009904295  0.6738433321755574
  0.5615154965570968  0.3266101185339687  0.9847189622911813
  0.7030823841477023 -0.0054821164668274  0.4675259876427359
  0.6216785584140340  0.2615437502719191  0.5601723945571462
  0.7906841420189722  0.9537378881574589  0.0333060605463086
  0.5541929148314357  0.9686948980278036  0.8036687775978011
  0.6883216582642665  0.8905777535780011  0.4624058044205968
  0.7220379571840640  0.0239719566699337  0.5678779340904815
  0.1760799248511593  1.0001874909801085  0.9653308103000035
  0.0701601650312837  0.9338726753978707  0.4848322833933194
  0.6787157263179173  0.8502489135572772  0.9572399864279494
  0.2725628515378459  0.0532658665887943  0.6972258266890369
  0.6939520993027369  0.6422083707434001  0.8510112331813935
  0.1365420851214725  0.4996978121840561  0.8330607786072581
  0.2325403167531031  0.5143744850171181  0.4562543566593580
  0.3456957764690247  0.5897031758238800  0.5672254585721496
  0.2867736286257796  0.5039780121164961  0.5488849962659115
  0.0591952150198509  0.8940052632366814  0.9189009907793525
  0.0243031099966325  0.8342040350860884  0.9978636380758437
  0.4952792511453806  0.6031800895177647  0.6268942860680146
  0.1338318854065026  0.8516235566444799  0.4914424836214554
  0.0486611653422950  0.5496947599253221  0.8589681952344093
  0.5166873500727793  0.4602036612670770  0.9304268617854083
  0.3709498806451738  0.7909593912616344  0.7807160443311230
  0.0170776715208486  0.5268468416499519  0.9549816828992167
  0.0624009430819935  0.2396414566498574  0.5035617919648659
 -0.0850474203344075  0.5441952286833799  0.9797393445750117
  0.5430250118293544  0.5388758395922975  0.5598654955723318
  0.6502218402648394  0.5534978762718871  0.8815902068042416
  0.4689991205891492  0.8281955479509390  0.7782148294806418
  1.1063159204877191  0.7824177445672232  0.5600586992980011
  0.7187496185043970  0.9439349219358247  0.9588592178171013
  0.5464507215176376  0.5389708146668087  0.8703173550347608
  0.9186684701653077  0.7064933312020514  0.6461253187319218
  0.9621626305523669  0.7474539435095601  0.7337406333567951
  0.6452049773920845  0.5456597388128459  0.5661994038354616
  0.8181326717291632  0.7279313508787028  0.6216054529499787
  0.7419840107311992  0.7748340461733955  0.9270640637155489
  0.8876784378730876  0.1189787318673441  0.8941880922604150
  0.3263361355159853  0.9232592065115837  0.6126170632993345
  0.0916602572178223  0.2333553403380431  0.2126591262464745
  0.2751895705339972  0.1016029228966243  0.2955230305791273
  0.1386539694695595  0.3408402461257047  0.2293540911064659
  0.1878967566289665  0.3620202604042834  0.0794389433343528
  0.1487579599876880  0.2543558759617081  0.0411507958707136
  0.1939643200821692  0.9709142163322972  1.0318131337466698
  0.2073378476049909  0.1520028395170912  0.4298421784278063
  0.3082695715663191  0.1193917983272154  0.4776640537463094
  0.4090570217311845  0.0421519295660515  0.3732252238645740
  0.3202951518885806  0.2108068085362494  0.2926564269331072
  0.1322263027371805  0.1146562044950694  0.2512743320109639
  0.4254524059907407  0.4935189560992793  0.3572899963509508
  0.3255048714545543  0.4471361490398454  0.2483130254066974
 -0.0178382733160004  0.3716647196763229  0.2001487273535335
  0.2701960250497411  0.0798280165422419  0.0914148373125301
  0.3806867944239389  0.1951694190077134  0.1016164208539653
  0.0283203740981377  0.2857994894209657  0.3674599176218953
  0.3404764895193478  0.7084740273419141  0.1561664578340752
  0.3314556876217098  0.2661272861342273  0.0163290916092870
  0.7333159301036373  0.1812195198541963  0.1848800945606563
  0.4539458679891958  0.1524713188954722  0.3923676923215118
  0.7022867912804368  0.3133820822946157 -0.0178560484139810
  0.2403021288938299  0.9137306920169607  0.3401077292561322
  0.3225925862910222  0.5989246258421216  0.2101229458853575
  0.0417193630702927  0.4034143205801685  0.0986329126044525
 -0.0719193709933499  0.2317752035255677  0.1363899270463337
  0.7984833376152639  0.3618260608954459  0.2254883272732521
  0.8773131495484303  0.2903888263599652  0.3887762362870664
 -0.1027450542010433  0.3346804091913745  0.0721208353682401
  0.9777022168437980  0.3381074058661607 -0.1049959136182069
  0.1045458291305076  1.0194546677785272  0.3216893555442197
  0.1728917550767789  0.3819203459101519  0.4714555350860610
  0.5056788636572515  0.8827871051354444  0.3833442112189993
  0.1259547172381280  0.1372715322166963 -0.0000222153148496
  0.7187983210070350  0.9696859804581337  0.2930032478501359
  0.0681878598481803  0.5473197081062238  0.5435257328675350
  0.7938905236505701  0.2557492631483422  0.1142411872684551
  0.7757869132839333  0.1703510911830015  0.3917624557789093
  0.7121759424948826  0.3184107486199039  0.3599658048803024
  0.6287475555891796  0.3914778145626535  0.3344273275558947
  0.7119181208094476  0.4428644298421394  0.1936510523260934
  0.5385791356814835  0.9494010983752771  0.2614871573900973
  0.7104477249172430  0.5247075557234750  0.3623324264382292
  0.7594113229816671  0.4540639249194710  0.4415222701205077
  0.8523995193399554  0.0851087609601553  0.4286053394497947
  0.8893261777486927  0.4285395414176140  0.3578643990746565
  0.6040424710234269  0.5743088676016309  0.2750270971045043
 -0.0226146768171092  0.1217371426091348  0.1621143143206940
  0.8949729581167537 -0.0102211319508611  0.2967633221203817
  0.9117231407738117  0.0235236927069118  0.1398079634765397
  0.8612352286268078  0.5794774577963873  0.2155373490972707
  0.7229908330991045  0.6148318795936627  0.2751763450167978
  0.5931285762696684  0.1685075451226646  0.4569928436738814
  0.9592575844954787  0.5178335330248018  0.2494614002288191
  0.5528118627705734  0.0144659626269900  0.1671157180675160
  0.5840363419829475  1.1517010818423496  0.2385803226501365
  0.5020443769107031  0.1810740871037038  0.5432666197120886
  0.8864350297204441  0.2409877948081703  0.4983801501981341
  0.3605704709534729  0.9654320850956138  0.4756551290376214
  0.8919305693129439  0.6624281257931294  0.3618685673879151
  0.6482354407799926  0.9405007151705256  0.0981459833130106
  0.7126046230492377  0.1528969437202738  1.0184683709714508
  0.9829875341416298  0.0686240102444761  0.3298101405921624
  0.8717869639904381  0.4668441530689250  0.1788237851512431
  0.9261380002343031  0.0938841073698656 -0.0466556735157966
  0.5302927448756040  0.8983358225063809  0.5471486252928736
  0.7113738045556535  0.7110479085622698  0.1582849364920059
  0.9008782001522260  0.7380737500977533  0.0891394705054658
  0.0806634843657575  0.5990209597273575  0.1464724680035406
  0.1986528878538205  0.8591077634298832  0.2371484003335664
 -0.0223440728293871  0.6500214792301540  0.1100368525488589
  0.1717094978551312  0.4152872516837465  0.3549236323185959
  0.2208957105488859  0.5714205684517125  0.0492299338682523
  0.3872175427785918  0.9523289817594244  0.2580805696450632
  0.1643680316220664  0.5273044172876975  0.1933447971475274
  0.3076010083640488  0.9447326218143776  0.0918551597040022
  0.2026104184903058  0.6903205628105472  0.0680556813308690
  0.3593633139555645  0.8342812505551974  0.2632547429518367
  0.2952233100690363  0.8285822225125331  0.1181203957471684
  0.4748215398083704  0.8347482441218549  0.1352325809654639
  0.4672402841277900  0.9226887214287144  0.0514245607120257
  0.4443711893159625  0.8130491795690982  0.5675517955214814
  1.0360962010179573  0.7787715802651094  0.2714765549381822
  0.4949877049580871  0.4822155637112734  0.1670697605146745
  0.4600230868037088  0.6028914651937655  0.1160696912418263
  0.9739184949024022  0.6822881819547023  0.2291716234276885
  0.3645387288671944  0.8848053427462708 -0.0786193994494470
  0.3942591876470532  0.6017929155782145  0.0150707639052664
  0.4617713146004288  0.3800020450142292  0.1131358088061995
  0.0830377411738382  1.0161017081066606  0.1131914046891168
  0.1078062508078284  0.6674454116241562  0.3817229133359022
  0.0635507111164889  0.5784353324235675  0.3144953039291545
  0.9255959350918772  0.9591825567201518  0.4908829062590748
  0.9741106595990930  0.7039714138395791  0.4370856493247068
  0.3016206034410533  0.8560550834705739  0.5911252269585060
  0.3357027817041620  0.0894078290086277  0.9914304788362178
  0.6445914487136891  0.6754415107806566  0.4062428075000478
  0.3947070183532573  0.8482499385910397  0.3988076883216770
  0.6688498843092313  0.7648831830324956  0.3224773912511853
  0.4893776973349041  0.6540021672302088  0.3244589862668734
  0.5938331689432391  0.7225086052494989  0.1506158178328341
  0.0774077511356909  0.9648752904110840  0.4150114834660980
  0.5906805386280565  0.5468935479228487  0.1159106254170358
  0.5061109111730103  0.7683529866926606  0.2824567035726414
  0.7157072104416609  1.0512045127101064  0.2078372671723726
  0.8622350868449293  0.5455589340756070  0.3706854639174149
  0.7079281190970432  0.5592840106656787  0.0905077560400561
  0.6201995657951676  0.6234993760658440  0.0277591015981062
  1.0488400761601639  0.9289766206921114  0.1882084068791602
  0.6102283854387029  0.1576077135874916  0.0790939277256631
  0.2804203078789744  0.8209205934928476 -0.0187643581391888
  0.5714803218713951  1.1066102423844550  0.3502858902374181
  0.8631224178602129  0.8154651474883985  0.3082826585897894
  0.8438844795197807  0.8056575360098363  0.4244369342087209
  1.0833627212559747  0.4271007400068550  0.5685613768461797
  0.3596091812013377  0.3380809715196955  0.2392606408951422
 -0.0212970903769760  0.7155406886784140  0.9233033150412554
  0.2867403106748375  0.5246810101797003  0.4029708678583614
 -0.1046176029957721  0.4973573511708612  1.0363589318148774
 -0.0446060007565469  0.8620268691334443  1.0068079093703721
  0.8749753476919363  0.5207933906600266  0.9208376521082278
  0.6708139069580202  0.8481586979909197  0.1702987981079529
  0.1344991973468538  0.2531238142975286  0.4865383251486696
  0.9533872603254141  0.8497465217954351  0.5213558373566093
  0.0771450661102463  0.0728687489661287  0.7626807011090878
  0.3973398830463894  0.3217572088815063  0.6266741841550805
  0.3454081486641847  0.3315446255211574  0.8660640839385080
  0.2460069364127927  0.3066398084400609  0.7097377069272859
  0.0811766648449915  0.0324590104994811  0.6484497213763764
  0.2034416187067476  0.1501673556162178  0.6150154728574931
  0.0698818526808327  0.2349916474871211  0.6829684217109658
 -0.0310112795314224  0.1709353955684727  0.6661372247494524
  0.2799675847554841  0.0216113078752380  0.7651305280067801
  0.4492667984857579  0.3585933803069105  0.7280892609727778
  0.2861342598514673  0.4192092743759454  0.6900917298028457
  0.9499684447179643  0.0485088989260507  0.7841047241050537
  0.4737381549704696  0.2881933446849542  0.3816080835743626
  0.4459010442369639  0.3747605246403770  0.4622406710967376
  0.4825726547849241  0.2560175839002859  0.8370026433571164
  0.9887572542314316  0.5013947264899031  0.6904485797822651
  0.3098764920627575  0.4413097743998051  0.8447261772567337
  0.3754389292443721  0.2151838968224179  0.8758391278289912
  0.2080228962122019  0.1762395862580123  0.7324480038513319
  0.5173656725915132  0.4280548967815746  0.3143176923152137
 -0.1286711804064897 -0.0182883303681544  0.8519530884761315
  1.0348965289688028  0.2998913125344129  0.5374945276799865
 -0.0057329239330997  0.5292207125208159  0.8113349467381943
  0.1870699771220548  0.5137402649844204  0.8901667276497668
  0.1831735871856657  0.2776708547120902  0.8577878068267591
  0.8540779801531735 -0.0744623951397377  1.0034823222167886
  0.9192336718892412  0.2230169549059524  0.7887644117010573
  0.7669009160549564  0.6295584108911940  0.8305427486996094
  0.1953566777966895  0.1328543645279635  0.9000189043124952
  0.4098232037395012  0.0602628032210957  0.8473216397834626
  0.5036834302416202  0.1009412217209452  0.9078756670574271
  0.9861385053994426  0.3842904860571776  0.6685104650484508
  0.9050101372881661 -0.0335339411237759  0.7011518326001834
  0.7569766027750534  0.0161878411622575  0.4223185107659153
  0.5001223849902947  0.0614786824397262  0.7005035301634617
  0.7002757103872198  0.3352221021909365  0.7735637754719390
  0.6953778847786464  0.2153099062278114  0.7372150773541311
  0.8318804640779837  0.4369568319891993  0.7622917311925376
  0.8221134446872473  0.2474899165270251  0.6312891421214720
  0.8322214818306392 -0.0729014574061261  0.5695008729283247
  0.5861996123490019  0.3727614019923239  0.6488370028463410
  0.8420487327363397  0.3026574875322806  0.7319198617525415
  0.5941375644978838  0.1070451849076704  0.7575128588687887
  0.8692514391201448  0.0395547858927205  0.5704031292924588
  0.7953208956868867  1.0278994055134605  0.0438963136465854
  0.4983208313078155  0.2861207673623817  0.9950147617472112
  0.6429168673070415  1.0278981372831151  0.4396284562690469
  0.5535601022378671  0.2627159883963271  0.6909163706647394
  0.6022841135478687  0.3148900118614925  0.5119135117526425
  0.2546168069110496  0.2925104877247722  0.4983955058142383
  0.8246450971160038  0.5203089527816402  0.6731434766170716
  0.6927371593866668  0.6773624193676490  0.5065060857308921
  0.5307438979033271  0.4840133618581154  0.9999384391304990
  0.7938732986098715 -0.0734719085972922  0.7282320223210439
  0.6672675773189574 -0.0138688619189856  0.6053390882829817
  0.0606479614447402  0.5528970819235535  1.0105076109557827
  0.3964120140807696  0.6902199358315562  0.8912880376627355
  0.5198954953101196  0.5448926568004726  0.4889106723620860
  0.7489249574653754  0.8493780672904924  0.4754993188130680
  0.1683299720648292  0.5322499499591226  0.7727821510663330
  0.2157332528927015  0.9649525288226937  0.9123499869480906
  0.0838565610398236  0.9874896283810507  0.5334149908645344
  0.9291571589679329  0.8119216999802579  0.7510658527728316
  0.3192018204207434  0.8455620641952510  0.7712116444957292
  0.6955448139611038  0.2488523219439908  0.5497673129068772
  0.9190539883978317  0.4056844368478174  0.5170263330084890
  0.4947699260876974  0.8298849488086975  0.7064069130274215
  0.4307843633782415  1.0152524151043252  0.5607757551630245
  0.3368958501104481  1.0912580370325315  0.6855275865575222
  0.1385919669106324  0.8145652825836625  0.4266171377940287
  0.3395070239887573  0.4513985587012139  0.5473134471719420
  0.2439497116181669  0.4918496823984828  0.6087432597040360
  0.2808601417725022  0.7093624027191132  0.8630780864960700
  0.0573602569964302  0.6244148409607057  0.8502041777999114
  0.3851732973463011  0.6063217929064878  0.5040102688716890
  0.3048908921166318  0.6526349305479121  0.5837512424868225
  0.0024970859754164  0.9019944645906410  0.8705074799427941
  0.5293843122967546  0.5943100311341218  0.6922677303215764
  0.0572619429507423  0.8547335493571193  1.0603412199006108
  0.5027110856284746  0.6750233165607286  0.6047894381278089
  0.1174437973642334  0.8660344378219234  0.8800059004535059
  0.2052366851424282  0.8728252638936694  0.5037635714087062
  1.0809299496112439  0.6957287935069965  0.9772904104666257
  0.6737944534549791  0.5401075221960224  0.9505258186270985
  0.1933399625749104  0.5791608739990499  0.4560958805046879
  0.6814078456450365  0.5112109126573438  0.5103635215262329
  0.3693814729722031  0.2503500530486819  0.5074425455708951
  0.5202477706745693  0.4690752075459715  0.5775409007497012
  0.1966670954723011  0.3690447384653360  0.9415051982467851
  0.5990845638978154  0.1127973995902082  0.5634877782027521
  0.3556581358566206  0.7423801933340287  0.7246923062423467
  0.5979016934650809  0.9305308408334609  0.7530065138305494
  0.8182463543257606  0.1381138362940208  0.9183253406791257
  0.9292247487480384  0.6323449086636511  0.6506752576966937
  0.6365877216222299  0.8685812250559792  0.5126148534720408
  0.4420638431846210  0.4496620231718788  0.9241334427010941
  0.6172766176201773  0.8453664154373483  0.9152757904150617
  0.9590070476368874  0.7294847909343304  0.5868105458572304
  1.0620242750411661  0.7268601735535056  0.5378912567857690
  0.5137912784508823  0.7832576632090072  0.8179520665092416
  1.1685664733499206  0.7448142789533461  0.5739949824972395
  0.6620994828405833 -0.1309172695604550  0.3959091765777751
  0.7981811933644882  0.7698495345269928  0.9771860892215212
  0.7485318804461641  0.9690160510527871  0.8946600137864485
  0.7111330257839047  0.0958367460007779  0.5850698748253627
  0.9584698589430799  0.7028993707335429  0.7933428205448212
  0.5002052637335609  0.5976880789692754  0.8869249751771366
  1.1045376889721943  0.7956616573883818  0.7684777359715782
  1.0208024225810488  0.4517576821044149  0.9628392366746544
  0.6689057647106674  0.5131727249546187  0.6298908323753791
  0.5896340842878226  0.9694259740682905  0.8698361818141019
  0.5375278349275908  0.5189537756115894  0.7986500870661496
  0.8995782587358802  0.5271605093042728  0.5385026877121678
  0.7717918707247521  0.7846035370769469  0.8570233041471313
  0.6801887860625088  0.4974588780382848  0.8403388026563711
  1.1028813471275347  0.7071138494159812  0.6906578863475525
  0.6610990192345135  0.9915027586682109  0.9701541840221479
  0.8748778076644473  0.3005240033134075 -0.0522428827730035
  0.8108884438775744  0.7560774688189926  0.5516463850435066
  0.6599486043670090  0.8303963957715907  1.0263836914935247
  0.6507768201263355  0.2293847583227535  0.9137159592657963
  0.6639279666800210  0.6797530034384222  0.7915829665884722
  0.7956969332478936  0.7791724012809709  0.6727027267023888
  1.0313170293051832  0.1652766062503904  0.3801926786866337
  0.3654837692679558  0.9149631321118331  0.6763133460624960
  0.6299182813618853  0.6903568485688003  0.6082895073704344
  1.0128901364930332  0.1786517953355357  0.8455610079245716
  0.5723374568166331  0.3626611052981603  1.0482169555170933
  0.2580341309804582  0.2504411800793857  0.1338481195581065
  0.3366220487911694  0.3224892236686517  0.3889406057025975
  0.3750039793484103  0.4880797635694781  0.0927289776760154
  0.9909829772444148  0.2483499139321867  0.0064563471242118
  0.4572889800395111  0.1048208527992670  0.2598415503022805
  0.8633996105487396  0.1279118777731767  0.2920068079735548
  0.6755400423815914  0.3089807363772324  0.1736895061803438
  0.9613956694325403  0.8788765660044582  0.3814226694232840
  0.2113189756292021  1.0049265571915624  0.2341488890099734
  0.4193975026137332  0.7951805243836725  0.0101821145374714
  0.1627614044462006  0.6580731261139802  0.2503566668442178
  0.4860783668361926  0.7501917238695993  0.4219662425023151
  0.3968906609127108  0.2240993670110372  0.7307873884601943
  0.0575666356233979  0.1623974794464811  0.5573351834409931
  0.7614818400208607  0.6448947420636202  0.6257048986333441
  1.0629324212393123  0.8285460649261425  0.6366198785550127
  0.1283785230078127  0.3992552909746052  0.8227929641052475
  0.7956303054919258  0.3898310611430365  0.6319542648162096
  0.8154289203921102  0.0647125666977682  0.7513537374563338
  0.5620639431763312  0.3803940016183710  0.9064796651231465
  0.0794733728375726  0.9841377884823092  0.9508367319986626
  0.0675341593846674  0.4622130058552021  0.4330465288955321
 -0.1150061753631313  0.6314327467732249  1.0038487414075443
  0.2548346810304050  0.9845655077707450  0.6294686710134672
  0.4034548555518184  0.5765613833501612  0.6430109476696868
  0.6919262313908889  0.6966933559784166  0.9324096565077915
  0.4692917887690086  0.9172090855647645  0.8177818083762024
  0.7818412361376490  0.9076079346071805  0.1200684255523523
 
 -0.16138149E-03 -0.10743360E-02 -0.34712023E-02
  0.19382163E-02 -0.46135926E-02  0.72691532E-02
 -0.34719759E-02  0.26536730E-02  0.46623354E-02
 -0.28463992E-02  0.57752204E-03 -0.62498617E-02
 -0.41397947E-03  0.83959038E-03 -0.10518965E-02
  0.15600336E-02 -0.51694613E-03  0.12557500E-01
  0.76097532E-02  0.11911042E-01 -0.65384485E-02
  0.77529814E-02  0.78500276E-02 -0.75476814E-02
 -0.23025473E-03 -0.37644843E-02 -0.56143612E-02
 -0.83016194E-04  0.53457405E-02 -0.37662172E-02
  0.54590611E-02 -0.10355112E-01  0.85575821E-02
  0.42626147E-02  0.81981424E-02 -0.25568161E-02
  0.40098204E-02  0.21198518E-03  0.91630391E-02
  0.25235943E-02  0.65029847E-02 -0.81806476E-02
 -0.25021087E-02 -0.45862048E-02 -0.41273304E-02
  0.83712167E-02  0.95381888E-03  0.71395446E-02
 -0.57732771E-02  0.40774752E-02  0.19931967E-02
 -0.45915940E-02  0.55664592E-03 -0.34323293E-02
 -0.91948605E-02 -0.64857095E-02  0.47224812E-02
 -0.23792604E-02 -0.72618900E-02  0.29367239E-02
 -0.51498475E-03  0.13188500E-02  0.84072140E-03
  0.12803369E-01  0.35518492E-02 -0.20802568E-02
  0.78789095E-02 -0.49166270E-02  0.61174728E-03
  0.76123039E-03 -0.60703759E-02  0.31490411E-02
  0.11879599E-01  0.49741274E-02 -0.58860906E-03
 -0.42260236E-02 -0.14256689E-02 -0.20707859E-02
  0.92773629E-02  0.23754290E-02  0.61551210E-02
  0.94625652E-02 -0.37089124E-02  0.13705952E-01
  0.10851540E-01 -0.92504692E-03 -0.26832434E-02
 -0.10734290E-02 -0.17970272E-02  0.66135797E-02
  0.11797712E-01  0.22023212E-02 -0.22837095E-02
  0.42762126E-02  0.45782936E-02  0.19969311E-03
  0.12533974E-02  0.62434212E-02  0.25117243E-02
 -0.76167129E-02  0.74219812E-02 -0.56153615E-02
  0.15026162E-02 -0.18471568E-02 -0.70072020E-03
 -0.35705454E-03 -0.11333706E-02  0.15823794E-02
  0.37713050E-02  0.24032940E-02  0.10094238E-01
  0.16048638E-02  0.10578558E-01 -0.24878278E-02
 -0.35350888E-02 -0.50843361E-02  0.39740371E-02
 -0.23767605E-02 -0.58714595E-02 -0.85100013E-02
 -0.94462985E-03 -0.75717557E-02  0.58087097E-02
  0.47431980E-02 -0.23231308E-02  0.31369912E-02
 -0.34219794E-02  0.22549451E-02  0.71952917E-02
 -0.33502893E-03 -0.85131347E-03  0.15553351E-02
  0.96219004E-03 -0.75947606E-03  0.19785386E-03
  0.12258648E-01  0.11563109E-03  0.17177269E-02
  0.25172178E-02  0.26132457E-02 -0.15963349E-01
  0.50030177E-02 -0.23919012E-02  0.31847024E-02
  0.15763332E-02  0.11568508E-02 -0.25608876E-02
  0.85927533E-02  0.58145665E-02 -0.99554741E-02
  0.63342652E-02  0.13892049E-02 -0.99018273E-02
 -0.44851561E-02 -0.16453680E-02 -0.21660869E-02
 -0.65117933E-02 -0.17626006E-02  0.51189236E-02
 -0.37302369E-02  0.38587624E-02  0.22240928E-02
 -0.46065818E-03 -0.69441000E-02 -0.62330432E-02
  0.15885185E-04 -0.37697471E-02  0.18733627E-02
 -0.88781426E-02 -0.50431585E-02 -0.35841764E-02
  0.18927180E-02  0.43898183E-02 -0.37990831E-02
 -0.63145385E-02 -0.55476941E-03 -0.20010283E-02
 -0.10359385E-01 -0.14502844E-02 -0.41220744E-03
  0.54793935E-02  0.11450172E-02  0.37288544E-02
  0.41858327E-02  0.71656910E-02  0.57466818E-02
 -0.18963834E-02  0.53867338E-02  0.58314419E-03
 -0.18723220E-02 -0.16737925E-02  0.49775933E-02
 -0.27035407E-02  0.74514798E-02 -0.67693626E-02
 -0.81506778E-03 -0.61155212E-02 -0.48148602E-02
  0.12530988E-02  0.31216027E-02 -0.55048783E-02
 -0.62458676E-02 -0.81089106E-02 -0.48557933E-02
  0.23466140E-02  0.49013235E-02  0.10199238E-01
  0.62144539E-02  0.35840567E-02  0.21243828E-02
 -0.40918988E-02  0.11117479E-01 -0.83771324E-02
 -0.53076814E-02 -0.54934701E-02  0.29803524E-02
  0.34091476E-02  0.26419704E-02 -0.28606524E-02
 -0.39118159E-02 -0.37171649E-02  0.17729690E-02
 -0.20887163E-02 -0.20621792E-02 -0.22181195E-02
  0.57555608E-02  0.53679077E-02  0.12600646E-01
  0.77175620E-02 -0.13228195E-02  0.41466331E-02
  0.17505172E-02  0.78080752E-02  0.72351689E-02
 -0.11169502E-01 -0.86029195E-02 -0.22525124E-02
  0.27121697E-02  0.83993066E-02  0.81677583E-03
  0.72620873E-03 -0.90124959E-02 -0.89483316E-02
 -0.90113104E-02 -0.87737140E-02  0.57012310E-02
 -0.50944168E-02 -0.26402851E-02  0.78049030E-03
 -0.13107059E-02 -0.94923783E-03  0.20400174E-03
  0.60292569E-02 -0.29070325E-02 -0.76985338E-02
 -0.37701854E-02  0.69823314E-02  0.42170268E-03
  0.38587550E-02 -0.24988506E-04 -0.51359292E-02
  0.45965855E-02 -0.51062414E-02  0.43298346E-02
  0.44410392E-02 -0.56262359E-02 -0.11747201E-02
 -0.76423022E-03 -0.61654965E-03  0.12689639E-03
 -0.74234271E-02  0.36268097E-02 -0.37841025E-02
 -0.66990034E-03 -0.76809899E-02 -0.13641767E-02
 -0.11404647E-01  0.10494233E-01  0.36743646E-02
  0.15700126E-01  0.65273926E-02 -0.45232943E-03
  0.47061458E-02  0.89728553E-02 -0.43911756E-02
  0.69132061E-02  0.55170604E-02 -0.29327312E-02
  0.12882964E-02 -0.41254347E-02  0.90822210E-02
 -0.11268926E-02 -0.37206636E-02  0.43402816E-02
 -0.65945785E-02 -0.39011881E-02  0.30824273E-02
 -0.65875600E-02  0.17294451E-03 -0.74691621E-02
  0.62613847E-02 -0.11129698E-01 -0.42654376E-02
 -0.47710562E-03 -0.93773817E-02 -0.71006464E-02